Cs I  Pb
 1.0000000000000000
     8.6754310575956701   -0.0000376230489380    0.0000000000000093
    -8.6754962226293699   15.0262497462963509   -0.0000000000000063
     0.0000000000000169   -0.0000000000000344   15.8390906229728738
 Cs  I   Pb 
   8  24   8
Cartesian
  0.0000531983354661  5.0086941193253560  1.3893296844418961
  4.3376297479451651  2.5043931307735896  5.3491023401861781
  0.0000531983355099  5.0086941193253178  9.3088749959287203
  4.3376297479452104  2.5043931307733240 13.2686476516713814
 -4.3376949129795150 12.5218189924735146  1.3893296844418292
 -0.0001183633685553 10.0175180039219036  5.3491023401857065
 -4.3376949129794955 12.5218189924736318  9.3088749959290507
 -0.0001183633684687 10.0175180039218734 13.2686476516715679
  6.4461127917320455  1.2870598778592284  1.9669993512244957
  4.3376760512001544  4.9393321048233849  1.9669958759268051
  2.2289338913722436  1.2868835439465238  1.9669958759275135
 -2.1084298454489772  6.2260273722378896  5.9267720069673508
  0.0000068950803728  2.5737551452759089  5.9267685316695573
  2.1087490549093024  6.2262037061529911  5.9267685316707306
  6.4461127917313013  1.2870598778595150  9.8865446627108788
  4.3376760512003010  4.9393321048240182  9.8865411874144566
  2.2289338913721526  1.2868835439461914  9.8865411874134672
 -2.1084298454498223  6.2260273722384465 13.8463173184559682
  0.0000068950804773  2.5737551452740752 13.8463138431588284
  2.1087490549103287  6.2262037061538242 13.8463138431589936
  2.1083646804177341  8.8001847510079756  1.9669993512247708
 -0.0000720601147967 12.4524569779709555  1.9669958759267896
 -2.1088142199406339  8.8000084170962136  1.9669958759270865
 -6.4461779567664337 13.7391522453877357  5.9267720069673953
 -4.3377412162332725 10.0868800184252905  5.9267685316695928
 -2.2289990564085289 13.7393285792994906  5.9267685316697793
  2.1083646804174223  8.8001847510086826  9.8865446627108806
 -0.0000720601146933 12.4524569779707104  9.8865411874126590
 -2.1088142199398314  8.8000084170963309  9.8865411874136413
 -6.4461779567683868 13.7391522453891142 13.8463173184562827
 -4.3377412162333497 10.0868800184222458 13.8463138431568158
 -2.2289990564067188 13.7393285793003681 13.8463138431584287
 -0.0001731222650595  0.0000999521854555 -0.0524107409991339
  0.0001731222684963 -0.0000999521846826  3.9073619147510303
 -0.0001731222650942  0.0000999521857799  7.8671345704932039
  0.0001731222686116 -0.0000999521844892 11.8269072262346810
 -4.3379212335839519  7.5132248253327045 -0.0524107409978812
 -4.3375749890503323  7.5130249209622519  3.9073619147498615
 -4.3379212335848667  7.5132248253319274  7.8671345704931923
 -4.3375749890509860  7.5130249209625042 11.8269072262340487
