Cs I  Pb
 1.0000000000000000
     9.1491990435630175   -0.0000000000002511   -0.0000000001033949
    -0.0000000000004574   17.3705895007464477   -0.0000000043506425
    -0.0000000001493317   -0.0000000031762640   12.6331357101400528
 Cs  I   Pb 
   8  24   8
Cartesian
  8.4612724319328905  8.8729912800349027  3.1582839287522058
  3.8866729088339951  4.1549508480614827  3.1582839210461229
  0.6879266114627769 -0.1876965332980315  9.4748517800557863
  5.2625261341710701  4.5303439020066412  9.4748517865359734
  8.4612724299082274 17.5582860247680053  3.1582839231345798
  3.8866729102534836 12.8402455957660120  3.1582839300908816
  0.6879266132254704  8.4975982231747338  9.4748517794889722
  5.2625261349170271 13.2156386496435356  9.4748517734574413
  4.6726562587290950  7.9562579371012330  3.1582840011568587
  0.0980567369098925  5.0716841821734562  3.1582838863415623
  4.4765427849050896  0.7290368090765738  9.4748516936065670
  9.0511423064713110  3.6136105643136514  9.4748518213480040
  7.3188513718046986  6.9902917048706223 12.1049903199116518
  2.7442518333615662  6.0376504000124189  6.8447132402482822
  1.8303476717422253  1.6950030451307889  5.7884224673776288
  6.4049471945160956  2.6476443331315398  0.5281453889475628
  1.8303476736844069  1.6950030399038403  0.5281453887370602
  6.4049472041080335  2.6476443407040628  5.7884224672742493
  7.3188513772595911  6.9902916960927044  6.8447132399425241
  2.7442518471472432  6.0376504122750170 12.1049903198827327
  4.6726562590392646 16.6415526933643285  3.1582840107587584
  0.0980567369362196 13.7569789381345888  3.1582837527383836
  4.4765427844594745  9.4143315562884258  9.4748517058304316
  9.0511423060702292 12.2989053139757889  9.4748519507865101
  7.3188513817819771 15.6755864447295483 12.1049903203298452
  2.7442518730567724 14.7229451887388301  6.8447132408902958
  1.8303476933766976 10.3802977670592664  5.7884224593553384
  6.4049472105949645 11.3329390980620168  0.5281453853219873
  1.8303476593934249 10.3802978057158644  0.5281453845809368
  6.4049471755394247 11.3329390670796037  5.7884224600987819
  7.3188513437947620 15.6755864862808068  6.8447132419284236
  2.7442518339053841 14.7229451531184257 12.1049903199630933
  4.5745995192661528  0.0000000093302124  0.0000000100285076
  0.0000000014160671  4.3426473815057758  6.3165678568550758
  4.5745995262278596 -0.0000000370161259  6.3165678562172776
  0.0000000009451579  4.3426473783296968 -0.0000000027266569
  4.5745995229934069  8.6852947375807368 -0.0000000128849222
 -0.0000000011421608 13.0279421179504720  6.3165678601047235
  4.5745995177863943  8.6852947795659592  6.3165678526028559
  0.0000000006496289 13.0279421223059462 -0.0000000121332690
