Cs I  Pb
 1.0000000000000000
     8.3706532492624426   -0.2018229652433535    1.5696642872583930
    -0.3471797227079542   18.1148965366917167    0.4996256615579743
     2.3950075507973048    0.4365814872144368   14.8169899266766514
 Cs  I   Pb 
   8  24   8
Cartesian
  3.8606807191430601 -0.6528210402467010  4.5144891961873395
  0.1764212731838127  3.8815127729525889  3.5370095091020870
  8.3472929743948079  1.3496944407459823 12.6551232937481917
  3.6054107690772952  5.9792253648090767 12.3135372599016772
  3.6871352864764817  8.4045565499245054  4.7643595890422530
  0.0028301596307566 12.9390157263009460  3.7868348254624924
  8.1737750078225773 10.4067767693000661 12.9050268943750019
  3.4318652986208442 15.0365514068145352 12.5633009499165667
 -0.6103018653002716  0.0021115364636485  3.3250449842578282
  4.7881660151677705  4.6189215525487191  4.5298100541090704
  7.5601462420605321  2.7810544844306357  1.1735982944198802
  2.1690419120261253  6.4770417682823194  1.2943458333912248
  6.5420647215021628  7.3813996559785515  0.9109696274286343
  3.1882967939558888  1.9083481735645647  1.5836324014283707
  4.4356078269843016  0.7716171057316358 12.1185894194120412
  7.3453565376416616  5.0353375189670180 12.7680005968340673
  6.2025414619084067  2.4689541053200785  8.2619080556957467
  0.9969348639489236  6.1287165189717641  6.5743733454960953
  4.7932580655847286  6.8562298852121417  8.6619766640343681
  1.8754446528832136  1.3918703284391098  7.4121679893977452
 -0.7838790351238275  9.0596016673276107  3.5749136964111847
  4.6146166693010944 13.6764912131771172  4.7796104945830606
  7.3865750410575961 11.8385051034085649  1.4235015160760143
  1.9954529813908075 15.5344874127420756  1.5440822184369423
  6.3684871250955837 16.4388467866645804  1.1604153717771184
  3.0147357796422902 10.9658092353978400  1.8335991449691069
  4.2619566189217011  9.8291261844550402 12.3684670721836909
  7.1717176757412178 14.0923879487178514 13.0177871263860290
  6.0289520632653426 11.5264114408116960  8.5117015857567591
  0.8233504075478658 15.1861866711951485  6.8241910737249336
  4.6196615256473885 15.9136843076659211  8.9117602308605228
  1.7018746086488266 10.4493087583321067  7.6619959871616059
  0.9000275708160674  0.2339360359882146  0.1268843388833975
  4.8571549348653518  4.6586295060277711  1.0046280498635045
 -0.6476235791044440 -0.3508932560445674  6.3445069608162514
  3.7586074624597359  4.1247446640750187  7.3456193492293371
  0.7264854195069328  9.2914474097778612  0.3768150699395155
  4.6835910319055509 13.7160552525331383  1.2543947824788695
 -0.8211928651324962  8.7065666301390348  6.5943617368831662
  3.5850364845041081 13.1822039286995416  7.5953848983154444
