Cs I  Pb
 1.0000000000000000
    12.7346242219494812   -0.0000000000000000    0.0000000000000000
    -0.0000000000000000   12.7346242219546806   -0.0000000000010310
    -0.0000000000000001   -0.0000000000006744   12.7346242219494812
 Cs  I   Pb 
   8  24   8
Cartesian
  3.1836560554873699  3.1836560554885058  3.1836560554871176
  3.1836560554873752  3.1836560554881674  9.5509681664618622
  3.1836560554873730  9.5509681664658448  3.1836560554866011
  3.1836560554873743  9.5509681664655073  9.5509681664613399
  9.5509681664621198  3.1836560554885058  3.1836560554871154
  9.5509681664621144  3.1836560554881665  9.5509681664618569
  9.5509681664621109  9.5509681664658448  3.1836560554866020
  9.5509681664621109  9.5509681664655037  9.5509681664613399
 -0.0000000000000007 -0.0000000000001706  3.1836560554873756
 -0.0000000000000008  3.1836560554886799 -0.0000000000002598
  3.1836560554873783 -0.0000000000000007 -0.0000000000000018
 -0.0000000000000000 -0.0000000000005058  9.5509681664621020
  0.0000000000000005  3.1836560554883437  6.3673121109744857
  3.1836560554873783 -0.0000000000003356  6.3673121109747441
 -0.0000000000000015  6.3673121109771742  3.1836560554868614
 -0.0000000000000017  9.5509681664660011 -0.0000000000007727
  3.1836560554873752  6.3673121109773412 -0.0000000000005159
 -0.0000000000000006  6.3673121109768376  9.5509681664615904
 -0.0000000000000017  9.5509681664656636  6.3673121109739688
  3.1836560554873783  6.3673121109770054  6.3673121109742263
  6.3673121109747424 -0.0000000000001692  3.1836560554873756
  6.3673121109747441  3.1836560554886786 -0.0000000000002584
  9.5509681664621020  0.0000000000000003 -0.0000000000000011
  6.3673121109747441 -0.0000000000005070  9.5509681664621020
  6.3673121109747424  3.1836560554883393  6.3673121109744857
  9.5509681664621038 -0.0000000000003368  6.3673121109747424
  6.3673121109747424  6.3673121109771769  3.1836560554868614
  6.3673121109747468  9.5509681664660011 -0.0000000000007738
  9.5509681664620967  6.3673121109773412 -0.0000000000005157
  6.3673121109747441  6.3673121109768402  9.5509681664615904
  6.3673121109747468  9.5509681664656636  6.3673121109739705
  9.5509681664621038  6.3673121109770099  6.3673121109742281
  0.0000000000000127  0.0000000000000132  0.0000000000000141
  0.0000000000000133 -0.0000000000003250  6.3673121109747424
  0.0000000000000144  6.3673121109773376 -0.0000000000005018
  0.0000000000000115  6.3673121109769957  6.3673121109742228
  6.3673121109747370  0.0000000000000116  0.0000000000000114
  6.3673121109747353 -0.0000000000003256  6.3673121109747370
  6.3673121109747388  6.3673121109773412 -0.0000000000005038
  6.3673121109747406  6.3673121109769975  6.3673121109742228
