Cs I  Pb
 1.0000000000000000
     8.7723166886215687    0.0000000000000000    0.0000000000000000
     0.0000000000000001   17.5446333772431871    0.0000000000000155
     0.0000000000000005    0.0000000000000021   13.1065003451390911
 Cs  I   Pb 
   8  24   8
Cartesian
  4.3861583443109202  0.0000000000000781  3.2766250862847772
 -0.0000000000000962  4.3861583443109025  3.2766250862847786
  4.3861583443108563  0.0000000000001212  9.8298752588543223
 -0.0000000000001893  4.3861583443109389  9.8298752588543277
  4.3861583443108536  8.7723166886216539  3.2766250862847852
 -0.0000000000001194 13.1584750329324880  3.2766250862847888
  4.3861583443109202  8.7723166886217179  9.8298752588543277
 -0.0000000000001492 13.1584750329325146  9.8298752588543348
 -0.0000000000000610 -0.0000000000000608  3.2766250862847741
  4.3861583443108083  4.3861583443107666  3.2766250862847817
  7.1989777943336151  2.8128194500228050  0.0000000000000189
  1.5733388942879649  5.9594972385987273 -0.0000000000000088
  5.9594972385987255  7.1989777943336062  0.0000000000000105
  2.8128194500228076  1.5733388942879345  0.0000000000000302
 -0.0000000000000226 -0.0000000000000397  9.8298752588543206
  4.3861583443108429  4.3861583443107390  9.8298752588543206
  7.1989777943336142  2.8128194500228068  6.5532501725695367
  1.5733388942879660  5.9594972385987308  6.5532501725695678
  5.9594972385987255  7.1989777943336035  6.5532501725695536
  2.8128194500228090  1.5733388942879363  6.5532501725695278
 -0.0000000000000373  8.7723166886215349  3.2766250862847848
  4.3861583443108243 13.1584750329323512  3.2766250862847928
  7.1989777943336142 11.5851361386443941  0.0000000000000189
  1.5733388942879647 14.7318139272203243  0.0000000000000127
  5.9594972385987290 15.9712944829551979 -0.0000000000000041
  2.8128194500228108 10.3456555829095258  0.0000000000000100
 -0.0000000000000618  8.7723166886215456  9.8298752588543259
  4.3861583443108252 13.1584750329323228  9.8298752588543312
  7.1989777943336151 11.5851361386443958  6.5532501725695562
  1.5733388942879645 14.7318139272203226  6.5532501725695624
  5.9594972385987264 15.9712944829551962  6.5532501725695891
  2.8128194500228112 10.3456555829095258  6.5532501725695598
 -0.0000000000000111 -0.0000000000000346  0.0000000000000042
  4.3861583443107888  4.3861583443107603  0.0000000000000079
 -0.0000000000000086 -0.0000000000000355  6.5532501725695447
  4.3861583443107905  4.3861583443107621  6.5532501725695456
 -0.0000000000000093  8.7723166886215491  0.0000000000000138
  4.3861583443107897 13.1584750329323512  0.0000000000000195
 -0.0000000000000108  8.7723166886215491  6.5532501725695544
  4.3861583443107888 13.1584750329323530  6.5532501725695624
