Cs I  Pb
 1.0000000000000000
     8.4781201654470628    0.1950008120001719    1.7070916681005754
    -0.1647000013236797   17.6776395353383116   -1.1729288789688950
     2.8127684735887599   -0.7687634119865958   15.0241767074372223
 Cs  I   Pb 
   8  24   8
Cartesian
  8.2326856844902192  8.3798024550859260  4.7215276541804734
  4.2525546307666273  4.1683806048030467  4.6674113911157189
  4.9930395760061570 -0.4829196212628361 11.9096865397973257
  8.9396457008639274  3.2916578204061810 13.2730651895852070
  8.3913620638918385 17.6591925244017496  3.7800243200360302
  4.3493176026845335 13.0332227062951507  3.5901378355520119
  4.3124659091467237  7.5804339822081523 11.6651171859130383
  8.5566744053640953 12.7505993216453923 12.2675038465185473
  3.6098841228420415  9.0068224749512495  3.7175845300788821
  0.4424669967602983  4.2101989051583280  3.5203551995150950
  8.8654181113811585 -0.9199498351683710 12.9678157614415372
 12.8743815426950086  3.6230865719608487 13.6747617558265890
  9.3434870370550875  5.1767515411600726 16.8809105150172343
  0.7447584899487701  7.4295917049401119  6.7342009165802645
  1.7645713689752465  3.0325655085995118  7.8066201784177993
  7.9348183515336617  1.5555085026308155  1.4180487697751349
  3.6025841371687775  2.6345330409273457  0.8426772056809144
  6.1167834366314491  2.0385816741090239  7.5423558708961185
  5.0765197498690631  6.6201353684548634  7.7116999486472606
  5.1581475312671898  6.2915981249392798 15.2185015687061895
  3.8483590137410451 17.5942081407798661  3.0688726060419547
  0.5081371034477609 13.5081196227731848  2.5779860140664530
  8.8816676288495415  7.1680035054046742 12.7103879331636485
 12.3528004946809542 11.6869293566865107 12.8341520877259843
  9.4382092581267933 14.1173735149954034 15.8557845250658875
  0.4437295980221696 16.4735091495118056  5.8987739639182832
  1.5945926804626622 11.9923908687478953  6.9630495096504896
  7.6824095516457138 10.3889680031812723  1.4217110312965140
  3.6736001564607803 11.3833207776439558 -0.2442142812908173
  6.1057340117213208 11.0220081658077866  6.6055340482268479
  4.7773724655422312 15.2828084410358134  7.2125401837821279
  5.3492349081313204 14.9216768376151094 13.8783087546700141
  5.2419787236587680 -0.1801641027490950  0.9099228923069790
 -0.6003626818981771  4.5560626474947066  6.3598579861981452
  3.4804348580655433  0.1697249188428687  7.2326871967446982
  0.9615002212550412  4.2200217602430472 -0.0287253966595809
  5.1734850579931226  8.5819734561551932  0.5186349992391199
 -0.6671922107480135 13.5253874641434990  5.3800445442418141
  3.4072964712578799  9.1985862903419573  6.7148093052781386
  0.8933907992797244 12.8569047996551049 -0.9008362561196304
