Cs I  Pb
 1.0000000000000000
    12.7901785740565241    0.0000000020820567   -0.0000000187635366
     0.0000000020820481   12.7901786611465464   -0.0000000026485143
    -0.0000000187635308   -0.0000000026484866   12.7901786306636183
 Cs  I   Pb 
   8  24   8
Cartesian
  3.1975451147843228  3.1975458457555441  3.1975481924677718
  3.1975453778199125  3.1975467643789410  9.5926302577935658
  3.1975423316533202  9.5926344768808836  3.1975436014393601
  3.1975439433024078  9.5926337010719784  9.5926372349534255
  9.5926341797443566  3.1975430069536688  3.1975445303030208
  9.5926322313343420  3.1975453710627337  9.5926328836830628
  9.5926352852681998  9.5926356133971264  3.1975432021427443
  9.5926326763814735  9.5926345707354894  9.5926359311391796
 -0.0000002728297909 -0.0000006864094522  3.1975444860612146
 -0.0000006443574276  3.1975447262814858  0.0000005211565152
  3.1975451041737899 -0.0000016322526521  0.0000001082958019
 -0.0000002428239918 -0.0000006490454746  9.5926342808660543
  0.0000001751458602  3.1975444961663619  6.3950890617001912
  3.1975447304593683  0.0000013191445234  6.3950888168849467
  0.0000021132564537  6.3950895458368855  3.1975444564404043
  0.0000003287410685  9.5926336595511987  0.0000001700693153
  3.1975442659941229  6.3950897957506081 -0.0000022080933831
 -0.0000009764403276  6.3950892263236545  9.5926340521244580
  0.0000010173586067  9.5926341322369488  6.3950885751242028
  3.1975449982777691  6.3950871567693284  6.3950910524173663
  6.3950897263235946 -0.0000007053348699  3.1975446815217352
  6.3950900964059185  3.1975442822613340  0.0000007719362196
  9.5926337269615534 -0.0000013644381047  0.0000005495695429
  6.3950901378537024  0.0000013395489959  9.5926338894742020
  6.3950892356420397  3.1975447235080754  6.3950886518568542
  9.5926337298751641  0.0000003442040925  6.3950887488012862
  6.3950871340734015  6.3950900109391622  3.1975446887189483
  6.3950895985586955  9.5926342036974628 -0.0000019607576813
  9.5926340970264441  6.3950901961305906  0.0000012917992194
  6.3950907024962564  6.3950876916984889  9.5926339846247402
  6.3950888772761356  9.5926340179004157  6.3950907449219621
  9.5926336013894815  6.3950884248046096  6.3950880438771929
  0.0000004777370790  0.0000003514358361 -0.0000005227719668
  0.0000001063451378 -0.0000002867353879  6.3950898984992017
  0.0000002572065763  6.3950890285514843  0.0000003651159601
  0.0000001364583308  6.3950893851785828  6.3950890712416335
  6.3950887658951157 -0.0000000323525894 -0.0000000019270823
  6.3950891166825494  0.0000000570831874  6.3950892034327556
  6.3950893191965212  6.3950895538137988  0.0000001056190543
  6.3950890901654551  6.3950891268033514  6.3950891159723229
