Cs I  Pb
 1.0000000000000000
    10.8365155729451228   -0.0000000000002700    0.0000000000082107
    -0.0000000000003528    9.8628720443930895   -0.0000000000004596
     0.0000000000149105   -0.0000000000018902   18.2015654112690690
 Cs  I   Pb 
   8  24   8
Cartesian
  4.5557193841171113  1.2328590055776398 12.2606712658150236
  0.8625384024470785  3.6985770166369916  3.1598885605720044
  6.2807961888922215  3.6985770166122718  5.9408941450227886
  9.9739771705412270  1.2328590055666062 15.0416768511258923
  4.5557193841199899  6.1642950277180990 12.2606712658539490
  0.8625384024546071  8.6300130388569407  3.1598885605880835
  6.2807961889031789  8.6300130388748038  5.9408941450005370
  9.9739771705286415  6.1642950277231545 15.0416768511454553
  1.7626252414976902  1.2328590056566180  0.0367750715187290
  3.6556325456045369  3.6985770166181076  9.1375577781689401
  9.0738903321226587  3.6985770166076812 18.1647903387434155
  7.1808830280879654  1.2328590056893129  9.0640076341615234
  3.2137608681332899  1.2328590056172433  5.2342215506747038
  2.2044969174023468  3.6985770166286489 14.3350042541182390
  7.6227547040733006  3.6985770166469125 12.9673438623947526
  8.6320186547001967  1.2328590056227045  3.8665611551862460
  0.2444617382957826  1.2328590056047930 11.0685906030939787
  5.1737960485486534  3.6985770166055643  1.9678078963998105
 10.5920538350456432  3.6985770166623038  7.1329748093308032
  5.6627195247795221  1.2328590056235380 16.2337575137111756
  1.7626252416358243  6.1642950276054407  0.0367750714565587
  3.6556325453081997  8.6300130388310112  9.1375577780396142
  9.0738903317326844  8.6300130389086487 18.1647903389067658
  7.1808830280097489  6.1642950276477206  9.0640076341244047
  3.2137608682557977  6.1642950276773991  5.2342215504403784
  2.2044969170628139  8.6300130388609730 14.3350042534361855
  7.6227547036123644  8.6300130388411453 12.9673438632924416
  8.6320186548790137  6.1642950276710193  3.8665611555380703
  0.2444617383130979  6.1642950276556858 11.0685906031685519
  5.1737960489346015  8.6300130388659184  1.9678078961182772
 10.5920538354275582  8.6300130388567560  7.1329748095517349
  5.6627195246244160  6.1642950276931359 16.2337575138065837
  1.7909663326485292  1.2328590049850376  8.0238378206328100
  3.6272914536110492  3.6985770168944172 17.1246205300817493
  9.0455492398124751  3.6985770165547627 10.1777275871855366
  7.2092241190938751  1.2328590048994410  1.0769448848270211
  1.7909663325349481  6.1642950283158378  8.0238378208408356
  3.6272914541113641  8.6300130385988929 17.1246205309827886
  9.0455492404142266  8.6300130389279790 10.1777275860860943
  7.2092241188523563  6.1642950283901934  1.0769448843889149
