Cs I  Pb
 1.0000000000000000
     8.8370452420861501   -0.0000107889037924    0.0000063019205094
    -0.0000215783492457   17.6737934356381672    0.0000102782742044
     0.0000086871125977    0.0000070812890650   12.9840544342305257
 Cs  I   Pb 
   8  24   8
Cartesian
  4.4185236106826187 -0.0000013614613858  3.2462252879630369
 -0.0000028933783231  4.4184496351061062  3.2458067899308767
  4.4185300752831660 -0.0000002664891462  9.7382538355445174
  0.0000002207586899  4.4184531499160373  9.7378346268819769
  4.4185137673606620  8.8368930167268509  3.2462326402529436
 -0.0000141158949717 13.2553471025521077  3.2458128740397045
  4.4185186745818834  8.8368969534797372  9.7382584837374679
 -0.0000093228205737 13.2553509304491701  9.7378384351738543
  0.0000044071417623 -0.0000022438463827  3.2550084262211443
  4.4185174557837170  4.4184405162278013  3.2370458088283836
  7.2052253482285149  2.7866687386780526 -0.0006344524525570
  1.6318351537319824  6.0502811019915876 -0.0006339179511057
  6.0501274783820991  7.2051650152029696  0.0006456930066832
  2.7868713111584236  1.6317681191471840  0.0006270195406938
  0.0000079976937759  0.0000010236317614  9.7469985270828321
  4.4185132983857924  4.4184449062978368  9.7290774020263822
  7.2051500850723507  2.7865431498649018  6.4913771303871091
  1.6318771326392576  6.0503125042285673  6.4914136158931450
  6.0501400486300678  7.2051828393132444  6.4926807148209589
  2.7869506986903581  1.6317293519704430  6.4926882765329168
 -0.0000059437458979  8.8368921886692942  3.2549966921011242
  4.4184999893961132 13.2553425042654780  3.2370491674596220
  7.2051867915291687 11.6234681346408681 -0.0006301917445805
  1.6318084791823138 14.8871434055327754 -0.0006356085181929
  6.0501480316080354 16.0419993268999903  0.0006546221575323
  2.7869203619290466 10.4686172428116002  0.0006678346085384
 -0.0000158706186252  8.8368944432420271  9.7470022455092113
  4.4185104248836105 13.2553450946884048  9.7290857494894016
  7.2052351780289143 11.6234380323153772  6.4913880940056821
  1.6317933542611349 14.8872408361324879  6.4913896650896614
  6.0500883770994323 16.0420873241509980  6.4926682901051507
  2.7868435924845425 10.4686322199698338  6.4926862061522570
 -0.0000000353889855 -0.0000019379020108  0.0017586326586905
  4.4185178015559687  4.4184450771252397 -0.0017510298678624
  0.0000030832494995  0.0000044016296190  6.4937834371132030
  4.4185219668567308  4.4184474547447694  6.4902731939569698
 -0.0000095990491744  8.8368975979182167  0.0017640023803668
  4.4185060046649740 13.2553386617632949 -0.0017464623411221
 -0.0000042115973729  8.8368976612602435  6.4937906768586418
  4.4185103623160007 13.2553468430873647  6.4902779943785127
