Cs I  Pb
 1.0000000000000000
     9.0890497373429628    0.0147140012270775   -0.0000265020272025
     0.0290549253834424   17.5665203969891550    0.0000461862969537
    -0.0000008590535843   -0.0000359476243998   12.9570710945182750
 Cs  I   Pb 
   8  24   8
Cartesian
  3.7465140811626423 -0.6737837242077005  3.2392510997590782
  0.7267918992532995  3.9360153591834437  3.2392748527335620
  3.9472495816194915 -0.1936585029347881  9.7178073854454823
  0.3943312005684811  3.9996792230562410  9.7178083210577544
  4.3947221314794485  8.8593730098020984  3.2392669628762008
  0.6493024161358804 12.7321024737450639  3.2393244761255584
  3.7386456373822221  8.0635415297958062  9.7178133531956252
  0.7276613140410367 12.7336661757242542  9.7178415938514942
 -0.0864409983183303 -0.0999039167711679  3.2392808308693746
  4.5455937320020929  4.7966420220347707  3.2392626944279810
  7.4393041726676969  2.9308057682053854  0.1016283607775599
  1.7718388656379915  6.1410819904224434 -0.1482945393105930
  6.1745260276846894  7.3425349244893940 -0.0828296321922839
  2.7094857557976164  1.8156591598562630  0.1317031992449414
  0.0229341734905837 -0.0495490944908686  9.7177922851809573
  4.6514382089832713  4.1061035517367568  9.7177988845542362
  7.4392967748667740  2.9307843042087267  6.3768554330779317
  1.7718337877630117  6.1410806966080012  6.6268519428276402
  6.1745135704084619  7.3425131687320517  6.5613622147206643
  2.7094602595177886  1.8156356971076533  6.3468298452767096
  0.1516383213660973  8.7011799877168983  3.2392878782625103
  4.6073306707806099 12.9814025750392084  3.2392949851823016
  7.5013298216771505 11.7406571649634976  0.0050374515947039
  1.8370911529420806 14.9697987004004887  0.0418465204110657
  6.1556988613293537 16.1368796138288815  0.0346896871630068
  2.7637068902239723 10.5846699668235136 -0.1015341987168607
 -0.0772488338618441  8.7739377974729766  9.7178270208825062
  4.6113101658640572 13.3789205546234786  9.7178191832613052
  7.5013087549991591 11.7406502007898030  6.4735203127534211
  1.8370813833314485 14.9697981615965254  6.4367814543415909
  6.1556948079747071 16.1368613247922283  6.4438871884444815
  2.7636800928911414 10.5846651013439779  6.5800869382836202
 -0.0869221011117440  0.0893826800962626  0.0106161416513017
  4.6094262006690236  4.5069663642704629  0.0123808941287557
 -0.0869492321202310  0.0893780657667860  6.4679216947293048
  4.6094023452706514  4.5069538735626669  6.4661480886674019
 -0.0449827082142101  8.8592009220901335  0.0002433375040670
  4.6640415495156606 13.2777866982359161 -0.0241231970889360
 -0.0450168745882869  8.8591825416378391  6.4783359225136588
  4.6640152572138449 13.2777506856395977  6.5027084582214316
