Cs I  Pb
 1.0000000000000000
    11.5380583656822822   -0.0000000000000001   -0.0000000000000003
     0.0000000000000008    9.6744229276849918   -0.0000000000000170
     0.0000000000000003   -0.0000000000000630   17.9893871153675775
 Cs  I   Pb 
   8  24   8
Cartesian
  5.2786084226104579  1.2093028659606089 12.1656468473380421
  0.4904207602306312  3.6279085978818761  3.1709532896542392
  6.2594499430717745  3.6279085978818673  5.8237402680295274
 11.0476376054515697  1.2093028659605607 14.8184338257133241
  5.2786084226104464  6.0465143298030979 12.1656468473380350
  0.4904207602306246  8.4651200617243880  3.1709532896542201
  6.2594499430717914  8.4651200617243934  5.8237402680295185
 11.0476376054515768  6.0465143298031414 14.8184338257133188
  1.9597818334172254  1.2093028659606504  0.1296308046032069
  3.8092473494238304  3.6279085978818633  9.1243243622869681
  9.5782765322650008  3.6279085978818482 17.8597563107643502
  7.7288110162583799  1.2093028659606375  8.8650627530805988
  3.1279748286970599  1.2093028659606084  5.0565854522154421
  2.6410543541440155  3.6279085978818348 14.0512790098992237
  8.4100835369851765  3.6279085978818513 12.9328016631521248
  8.8970040115382005  1.2093028659606746  3.9381081054683471
  0.1940661583432652  1.2093028659606211 10.8988623792384391
  5.5749630244978414  3.6279085978819055  1.9041688215546324
 11.3439922073389532  3.6279085978818677  7.0905247361291233
  5.9630953411843581  1.2093028659605860 16.0852182938129431
  1.9597818334172268  6.0465143298031307  0.1296308046032024
  3.8092473494238339  8.4651200617243472  9.1243243622869610
  9.5782765322649972  8.4651200617243401 17.8597563107643538
  7.7288110162583701  6.0465143298031219  8.8650627530805792
  3.1279748286970595  6.0465143298031272  5.0565854522154154
  2.6410543541440061  8.4651200617243223 14.0512790098992149
  8.4100835369851819  8.4651200617243685 12.9328016631521283
  8.8970040115382059  6.0465143298031210  3.9381081054683214
  0.1940661583432694  6.0465143298031219 10.8988623792384303
  5.5749630244978485  8.4651200617243934  1.9041688215546204
 11.3439922073389496  8.4651200617243649  7.0905247361291099
  5.9630953411843617  6.0465143298030792 16.0852182938129182
  1.8786285000922318  1.2093028659606209  7.9548742490049529
  3.8904006827489264  3.6279085978818189 16.9495678066887301
  9.6594298655899902  3.6279085978818690 10.0345128663626255
  7.6476576829333309  1.2093028659606535  1.0398193086787970
  1.8786285000922402  6.0465143298031041  7.9548742490049369
  3.8904006827489122  8.4651200617243347 16.9495678066887301
  9.6594298655899973  8.4651200617243756 10.0345128663626060
  7.6476576829333291  6.0465143298031538  1.0398193086787975
