Cs I  Pb
 1.0000000000000000
     8.7833636536289230    0.0000000000000000   -0.0000000000000000
     0.0000000000000014   17.5667273072575547   -0.0000000000000059
     0.0000000000000003    0.0000000000000070   12.9447386367200270
 Cs  I   Pb 
   8  24   8
Cartesian
  4.3916818268144571 -0.0000000000000098  3.2361846591800103
 -0.0000000000000025  4.3916818268143833  3.2361846591800094
  4.3916818268144615 -0.0000000000000091  9.7085539775400225
 -0.0000000000000054  4.3916818268143825  9.7085539775400225
  4.3916818268144535  8.7833636536287649  3.2361846591800076
 -0.0000000000000011 13.1750454804431509  3.2361846591800041
  4.3916818268144544  8.7833636536287685  9.7085539775400207
 -0.0000000000000052 13.1750454804431527  9.7085539775400189
  0.0000000000000020 -0.0000000000000065  3.2361846591800063
  4.3916818268144526  4.3916818268143816  3.2361846591800068
  7.1521649347754943  2.7604831079609906  0.0000000000000048
  1.6311987188534214  6.0228805456677659 -0.0000000000000010
  6.0228805456678831  7.1521649347753806  0.0000000000000015
  2.7604831079610341  1.6311987188533748 -0.0000000000000016
 -0.0000000000000057 -0.0000000000000022  9.7085539775400260
  4.3916818268144615  4.3916818268143842  9.7085539775400225
  7.1521649347754952  2.7604831079609955  6.4723693183600135
  1.6311987188534205  6.0228805456677676  6.4723693183600188
  6.0228805456678822  7.1521649347753842  6.4723693183600144
  2.7604831079610355  1.6311987188533785  6.4723693183600197
  0.0000000000000005  8.7833636536287649  3.2361846591800085
  4.3916818268144544 13.1750454804431545  3.2361846591800036
  7.1521649347754934 11.5438467615897693 -0.0000000000000012
  1.6311987188534223 14.8062441992965415 -0.0000000000000064
  6.0228805456678867 15.9355285884041624 -0.0000000000000017
  2.7604831079610332 10.4145623724821483 -0.0000000000000019
 -0.0000000000000032  8.7833636536287703  9.7085539775400189
  4.3916818268144606 13.1750454804431580  9.7085539775400189
  7.1521649347754952 11.5438467615897746  6.4723693183600108
  1.6311987188534240 14.8062441992965450  6.4723693183600153
  6.0228805456678858 15.9355285884041660  6.4723693183600091
  2.7604831079610332 10.4145623724821554  6.4723693183600153
 -0.0000000000000024 -0.0000000000000123  0.0000000000000020
  4.3916818268144588  4.3916818268143762  0.0000000000000008
 -0.0000000000000036 -0.0000000000000095  6.4723693183600171
  4.3916818268144580  4.3916818268143807  6.4723693183600179
 -0.0000000000000052  8.7833636536287685 -0.0000000000000011
  4.3916818268144571 13.1750454804431527 -0.0000000000000027
 -0.0000000000000051  8.7833636536287703  6.4723693183600144
  4.3916818268144588 13.1750454804431563  6.4723693183600126
