Cs I  Pb
 1.0000000000000000
     8.6497428880277187   -0.0000001947088137   -0.0000000000000005
    -8.6497432252732693   14.9817939597626211   -0.0000000000000156
    -0.0000000000000009   -0.0000000000000053   15.7324083021120860
 Cs  I   Pb 
   8  24   8
Cartesian
 -0.0000009143758844  4.9939317180301463  1.5634344962973696
  4.3248721897669693  2.4969650671423147  5.4965365718254038
 -0.0000009143758845  4.9939317180301419  9.4296386473534195
  4.3248721897669657  2.4969650671423116 13.3627407228814601
 -4.3248725270125199 12.4848286979114498  1.5634344962973663
  0.0000005771303403  9.9878620470236203  5.4965365718253878
 -4.3248725270125190 12.4848286979114480  9.4296386473534159
  0.0000005771303390  9.9878620470236168 13.3627407228814370
  6.4015281492021936  1.2980071899480343  1.9398393253593527
  4.3248713787300268  4.8948820491666414  1.9398392618442808
  2.2482147616491686  1.2980072785089087  1.9398392618443376
 -2.0766568738111051  6.1928895952244245  5.8729414008873206
 -0.0000001033389663  2.5960147360058059  5.8729413373723593
  2.0766565137419284  6.1928895066635317  5.8729413373723114
  6.4015281492021803  1.2980071899480048  9.8060434764153985
  4.3248713787300597  4.8948820491666378  9.8060434129003280
  2.2482147616491530  1.2980072785089332  9.8060434129003848
 -2.0766568738111091  6.1928895952244183 13.7391455519433716
 -0.0000001033389643  2.5960147360058072 13.7391454884284077
  2.0766565137419235  6.1928895066635326 13.7391454884283544
  2.0766565365655683  8.7889041698293493  1.9398393253593074
 -0.0000002339066022 12.3857790290479475  1.9398392618443210
 -2.0766568509874626  8.7889042583902057  1.9398392618442932
 -6.4015284864477353 13.6837865751057421  5.8729414008873571
 -4.3248717159755943 10.0869117158871155  5.8729413373723034
 -2.2482150988947049 13.6837864865448342  5.8729413373723398
  2.0766565365655549  8.7889041698293191  9.8060434764153488
 -0.0000002339065692 12.3857790290479457  9.8060434129003653
 -2.0766568509874772  8.7889042583902288  9.8060434129003387
 -6.4015284864477371 13.6837865751057350 13.7391455519434018
 -4.3248717159755916 10.0869117158871138 13.7391454884283490
 -2.2482150988947103 13.6837864865448342 13.7391454884283828
 -0.0000000340995622  0.0000000196873601 -0.1937923855703245
  0.0000000340995636 -0.0000000196874102  3.7393096899576959
 -0.0000000340995601  0.0000000196873589  7.6724117654857187
  0.0000000340995652 -0.0000000196874112 11.6055138410137406
 -4.3248716467361987  7.4908969995686734 -0.1937923855703427
 -4.3248715785370715  7.4908969601939015  3.7393096899576759
 -4.3248716467361987  7.4908969995686681  7.6724117654856965
 -4.3248715785370697  7.4908969601938979 11.6055138410137175
