Cs I  Pb
 1.0000000000000000
     8.7481300654838599    0.0000000000000000   -0.0000000000000000
     0.0000000000000000   17.0973160706904110    0.0000000000000000
    -0.0000000000000000    0.0000000000000000   12.5453572282049457
 Cs  I   Pb 
   8  24   8
Selective dynamics
Cartesian
  8.1355848682105947  8.6319505185434675  3.1363393070512360   T   T   T
  3.7615198354686545  4.1910365344743337  3.1363393070512360   T   T   T
  0.6125451972732772 -0.0832924831982670  9.4090179211537102   T   T   T
  4.9866102300152093  4.3576215008708648  9.4090179211537102   T   T   T
  8.1355848682105947 17.1806085538886748  3.1363393070512360   T   T   T
  3.7615198354686545 12.7396945698195339  3.1363393070512360   T   T   T
  0.6125451972732772  8.4653655521469364  9.4090179211537102   T   T   T
  4.9866102300152093 12.9062795362160667  9.4090179211537102   T   T   T
  4.3955372669638173  7.9809889789336230  3.1363393070512360   T   T   T
  0.0214722342218881  4.8419980740841817  3.1363393070512360   T   T   T
  4.3525927985200488  0.5676690564115771  9.4090179211537102   T   T   T
  8.7266578312619725  3.7066599612610260  9.4090179211537102   T   T   T
  7.1482999931976625  7.0075705257264076 12.1924872153126795   T   T   T
  2.7742349604557357  5.8154165272913980  6.6255486269947399   T   T   T
  1.5998300722861940  1.5410875096187944  5.9198086012101969   T   T   T
  5.9738951050281237  2.7332415080538066  0.3528700128922702   T   T   T
  1.5998300722861940  1.5410875096187944  0.3528700128922702   T   T   T
  5.9738951050281237  2.7332415080538066  5.9198086012101960   T   T   T
  7.1482999931976625  7.0075705257264076  6.6255486269947399   T   T   T
  2.7742349604557357  5.8154165272913980 12.1924872153126795   T   T   T
  4.3955372669638173 16.5296470142788330  3.1363393070512360   T   T   T
  0.0214722342218881 13.3906561094293881  3.1363393070512360   T   T   T
  4.3525927985200488  9.1163270917567818  9.4090179211537102   T   T   T
  8.7266578312619725 12.2553179966062249  9.4090179211537102   T   T   T
  7.1482999931976625 15.5562285610716007 12.1924872153126795   T   T   T
  2.7742349604557357 14.3640745626366080  6.6255486269947399   T   T   T
  1.5998300722861940 10.0897455449640017  5.9198086012101969   T   T   T
  5.9738951050281237 11.2818995433990050  0.3528700128922702   T   T   T
  1.5998300722861940 10.0897455449640017  0.3528700128922702   T   T   T
  5.9738951050281237 11.2818995433990050  5.9198086012101969   T   T   T
  7.1482999931976625 15.5562285610716007  6.6255486269947399   T   T   T
  2.7742349604557357 14.3640745626366080 12.1924872153126795   T   T   T
  4.3740650327419299  0.0000000000000000  0.0000000000000000   T   T   T
  0.0000000000000000  4.2743290176726036  6.2726786141024711   T   T   T
  4.3740650327419299  0.0000000000000000  6.2726786141024711   T   T   T
 -0.0000000000000000  4.2743290176726036  0.0000000000000000   T   T   T
  4.3740650327419299  8.5486580353452073  0.0000000000000000   T   T   T
 -0.0000000000000000 12.8229870530177976  6.2726786141024711   T   T   T
  4.3740650327419299  8.5486580353452073  6.2726786141024711   T   T   T
  0.0000000000000000 12.8229870530177976  0.0000000000000000   T   T   T
