Cs I  Pb
 1.0000000000000000
    10.8480872451414836   -0.0000002660164573   -0.0000000750976981
    -0.0000002546957507    9.7918419399087053    0.0000000068118251
    -0.0000000978491563    0.0000000189474962   18.3990178468783405
 Cs  I   Pb 
   8  24   8
Cartesian
  4.5366882323135815  1.2239755039845117 12.3404609320392513
  0.8873605044302023  3.6719305441339736  3.1409789097431333
  6.3114161373012747  3.6719289721206554  6.0585547313579164
  9.9607393739977681  1.2239781351231163 15.2580550246137285
  4.5366887389630577  6.1199051228974071 12.3404594632732802
  0.8873647854839196  8.5678726620243317  3.1409704555638944
  6.3114127707501746  8.5678687938028695  6.0585458763718503
  9.9607458534357853  6.1199045683896784 15.2580554997999620
  1.8650858030790252  1.2239737179867776  0.0470084911883600
  3.5589375920609614  3.6719194594993660  9.2465113307348989
  8.9829717422930546  3.6719540040067806 18.3520193312156259
  7.2891713271063141  1.2239899286769991  9.1525215513592357
  3.1722390589982754  1.2239757071709965  5.3998764630308740
  2.2517782020019501  3.6719356475514551 14.5993921929279598
  7.6758188011133122  3.6719400534256144 12.9991468106235093
  8.5962969112590049  1.2239786952716902  3.7996534299898665
  0.3021260210822521  1.2239791370458575 11.2635924234848961
  5.1219054311718244  3.6719269461914599  2.0640831980186913
 10.5459702331115146  3.6719281482706339  7.1354118255414898
  5.7261445109398759  1.2239857449715068 16.3348935799814043
  1.8650873697549790  6.1199160305243909  0.0469965717771212
  3.5589426219425064  8.5678723199363898  9.2465166834499399
  8.9829902129602672  8.5678496808880915 18.3520105416392525
  7.2891417605127300  6.1198987706771328  9.1525028638086088
  3.1722466093478956  6.1199078087939682  5.3998686069859927
  2.2517728554428587  8.5678622174329675 14.5993773764933064
  7.6758153494690831  8.5678578339294607 12.9991511661168122
  8.5962876626278639  6.1199032079658355  3.7996457696556885
  0.3021051110505830  6.1199058886452757 11.2635759000440547
  5.1219581735612199  8.5678768007477277  2.0641075162052513
 10.5459623292553051  8.5678651731311177  7.1354208417210065
  5.7261780685168837  6.1199103411952009 16.3349194299643123
  1.6986808618208802  1.2239915053603228  8.1487239665301274
  3.7253748383376522  3.6719283334304245 17.3482379921913328
  9.1494038802584079  3.6719381163637181 10.2502855348712156
  7.1227256334530713  1.2239745755170339  1.0508130608709958
  1.6986773459074549  6.1199030622911605  8.1487293056783709
  3.7253625516087538  8.5678568593431450 17.3482243511001002
  9.1494153884359548  8.5678619371750582 10.2502834235751230
  7.1227470068502834  6.1199018211907088  1.0507736615156791
