Cs I  Pb
 1.0000000000000000
     9.0922352669175037    0.0000699026788472    0.0000200250801745
     0.0001352480441643   17.5186553292496683    0.0000683121912372
     0.0000282243418325    0.0000498415784577   12.6330131099290011
 Cs  I   Pb 
   8  24   8
Cartesian
  8.4563612009083560  8.9504422451831314  3.1600792224240228
  3.9103594048830237  4.1886939600330617  3.1567524707887880
  0.6360430803920371 -0.1909939089224274  9.4759358173790549
  5.1820638006711164  4.5709280274774349  9.4733433999418910
  8.4564922675715284 17.7097484960131411  3.1601318942663599
  3.9104278754838844 12.9479841163366949  3.1566140016645861
  0.6360571296029578  8.5682644643004942  9.4759777356099182
  5.1821209890343765 13.3302256412385827  9.4734633415782952
  4.6332612736514873  8.0591517826223047  3.1585170067249506
  0.0871791901272969  5.0800320514282298  3.1577048792679392
  4.4590704884429586  0.7006063560501842  9.4750715302332011
  9.0052473652032514  3.6794889790354155  9.4744759543245554
  7.2528742745289607  7.0114078451806305 12.1281418855247036
  2.7073861835661504  6.1278633329861858  6.8212322359461925
  1.8392131731072865  1.7479140652284872  5.8115462283252208
  6.3852291636866285  2.6316337048130705  0.5047417541947262
  1.8377687318520561  1.7385346080485047  0.5034553441203291
  6.3837344571915775  2.6413688381474034  5.8130772715594423
  7.2545307312380922  7.0213505960664309  6.8201590286320828
  2.7084642582050389  6.1182451385159640 12.1294659231121216
  4.6333949826422982 16.8184812594345985  3.1585725643716418
  0.0872696726391932 13.8393502691035000  3.1577683461253279
  4.4591739514558428  9.4599169924145965  9.4751172337829104
  9.0053342134687213 12.4387105918627938  9.4745255487289501
  7.2530236081803796 15.7707230127391753 12.1281635235527681
  2.7073990162576793 14.8871928328315306  6.8212951931947092
  1.8392873171048731 10.5072506782907524  5.8115864164793676
  6.3853385330987233 11.3909255874577617  0.5048132006610122
  1.8378613458352755 10.4977436915133051  0.5035126013310975
  6.3837648757990140 11.4007091762655719  5.8131172429973903
  7.2546074308108697 15.7806495221565815  6.8202323584332918
  2.7086034289448859 14.8775342240183814 12.1295327869538738
  4.5414074340661506 -0.0065579445341179 -0.0041600431004099
 -0.0044250408332603  4.3862921297741675  6.3206523870164650
  4.5509101188474554  0.0067393291386755  6.3124061307511585
  0.0046703658437900  4.3730603147415481  0.0041475227160547
  4.5413314939665357  8.7527178130077914 -0.0041147013737281
 -0.0043450159224064 13.1455882610568988  6.3206865475180978
  4.5509783712161340  8.7660818648211976  6.3124326086541069
  0.0047882665781495 13.1323652482216318  0.0041861452540300
