Cs I  Pb
 1.0000000000000000
     8.8369259005924068   -0.0000000000000009   -0.0000000000000000
     0.0000000000001182   17.6738518011770083   -0.0000000000002144
     0.0000000000000009   -0.0000000000003364   13.0765736198515512
 Cs  I   Pb 
   8  24   8
Cartesian
  4.4184629502953925  0.0000000000013166  3.2691434049629087
  0.0000000000007556  4.4184629502925290  3.2691434049630099
  4.4184629502954058  0.0000000000011533  9.8074302148885106
  0.0000000000006788  4.4184629502922679  9.8074302148886012
  4.4184629502958437  8.8369259005866763  3.2691434049625050
  0.0000000000007686 13.2553888508848186  3.2691434049626942
  4.4184629502959645  8.8369259005864649  9.8074302148887504
  0.0000000000007225 13.2553888508844704  9.8074302148883348
 -0.0000000000008071 -0.0000000000011303  3.2691434049629011
  4.4184629502965933  4.4184629502950949  3.2691434049630037
  7.2270514014469462  2.8085884511612020 -0.0000000000000595
  1.6098744991451595  6.0283374494308273 -0.0000000000000834
  6.0283374494409427  7.2270514014579197  0.0000000000000768
  2.8085884511566586  1.6098744991387688  0.0000000000000195
 -0.0000000000008426 -0.0000000000012224  9.8074302148886314
  4.4184629502966111  4.4184629502947965  9.8074302148886439
  7.2270514014473646  2.8085884511609578  6.5382868099256788
  1.6098744991446905  6.0283374494309685  6.5382868099255020
  6.0283374494412456  7.2270514014579446  6.5382868099256308
  2.8085884511568859  1.6098744991390281  6.5382868099257880
 -0.0000000000002477  8.8369259005898364  3.2691434049629526
  4.4184629502973145 13.2553888508809514  3.2691434049624912
  7.2270514014482812 11.6455143517505029 -0.0000000000000001
  1.6098744991470058 14.8652633500140841 -0.0000000000000598
  6.0283374494329562 16.0639773020350241 -0.0000000000001497
  2.8085884511539940 10.4468003997230294 -0.0000000000000446
 -0.0000000000003452  8.8369259005896801  9.8074302148884911
  4.4184629502974255 13.2553888508807809  9.8074302148887984
  7.2270514014484162 11.6455143517500890  6.5382868099256095
  1.6098744991470362 14.8652633500139189  6.5382868099255163
  6.0283374494332387 16.0639773020350916  6.5382868099255926
  2.8085884511529544 10.4468003997220826  6.5382868099254550
  0.0000000000064292  0.0000000000017834 -0.0000000000000272
  4.4184629502895927  4.4184629502868686 -0.0000000000004228
  0.0000000000062040  0.0000000000016774  6.5382868099257143
  4.4184629502893449  4.4184629502857389  6.5382868099260376
  0.0000000000029801  8.8369259005773451 -0.0000000000003068
  4.4184629502900927 13.2553888508913076 -0.0000000000003796
  0.0000000000037986  8.8369259005773770  6.5382868099258928
  4.4184629502902109 13.2553888508911832  6.5382868099259692
