Cs I  Pb
 1.0000000000000000
     9.1248171460058707    0.0019944772290764    0.0047277284806603
     0.0038634652353541   17.4404339141881159   -0.0088763865842900
     0.0066961390586256   -0.0064918555025761   12.6660232204726952
 Cs  I   Pb 
   8  24   8
Cartesian
  8.4764499666599082  8.9308141938740313  3.1668609896110125
  3.9079022623279576  4.1517777157274143  3.1664283595142630
  0.6660691037173322 -0.2040130904174469  9.5005090488520931
  5.2310431777348700  4.5647711692566055  9.4998837479792115
  8.4783842943340826 17.6510263635499776  3.1624279559577610
  3.9098372261990306 12.8719958714706735  3.1619832372184566
  0.6680069047334797  8.5161944004800336  9.4960784557150593
  5.2329746949260425 13.2849806371185242  9.4954409177283310
  4.6735794273369233  8.0076962817447370  3.1743905036173969
  0.1042450111769440  5.0763920408825474  3.1778555604025613
  4.4695929815494964  0.7068582088026545  9.5136408997419544
  9.0373019044142602  3.6572505976596035  9.5160757011963870
  7.3031335041896392  7.0033484939591739 12.1554425076661179
  2.7423713740148683  6.0791384116332310  6.8492481170898909
  1.8457333278954104  1.7200627997397098  5.8252350638078747
  6.4169291105306323  2.6388664298491329  0.5233978459813448
  1.8497280691404618  1.7369512437000274  0.5332673582812653
  6.4137282627677630  2.6413133138822253  5.8185580455292811
  7.2956059973655449  7.0007059395975366  6.8611125556500347
  2.7430375108318179  6.0821528368609341 12.1484158401338860
  4.6755122862398455 16.7279167922616381  3.1699492809873768
  0.1061753281924973 13.7966045053468793  3.1734204313026457
  4.4715265062566667  9.4270681335459603  9.5091999042907567
  9.0392292150425870 12.3774590920776077  9.5116404105288357
  7.3050621165274316 15.7235641005227418 12.1510004297949248
  2.7443032254273638 14.7993567624236366  6.8448128784435811
  1.8476622760448740 10.4402713738969233  5.8207980889232012
  6.4188608494017680 11.3590855535420232  0.5189606480246911
  1.8516579394593278 10.4571691498141668  0.5288282705978882
  6.4156640179602107 11.3615321230078923  5.8141136211913222
  7.2975380851010554 15.7209177850349153  6.8566763620972155
  2.7449634170625465 14.8023708642348808 12.1439752899816167
  4.5532477081471168 -0.0110935475738543 -0.0292090780437518
 -0.0417788034646833  4.3577197694844534  6.3014552441087135
  4.5311710447026865 -0.0417318434986176  6.3142447734436482
 -0.0181810019283296  4.3426098275253722 -0.0199781504476366
  4.5551821676050501  8.7091235722246836 -0.0336460570327545
 -0.0398455730802043 13.0779377755986541  6.2970158235208586
  4.5331042004031481  8.6784876270141922  6.3098106259663451
 -0.0162481789209833 13.0628242683515996 -0.0244178706437047
