Cs I  Pb
 1.0000000000000000
     8.7618775540044957    0.0027049171852012   -0.0208715899800468
     0.0052129018846457   17.0743126959844069   -0.0381238258373382
    -0.0291030218362436   -0.0276560326852192   12.5472857452280842
 Cs  I   Pb 
   8  24   8
Cartesian
  8.1407486648291201  8.5963819587093990  3.1050187239087861
  3.7653940175861225  4.1844380625916715  3.1227172993680621
  0.5893427536131363 -0.1233631885218661  9.4232223830606525
  5.0359613755684274  4.4000128191882482  9.4506863883678918
  8.1433419410228378 17.1335393660864135  3.0859580075642512
  3.7679952260589737 12.7215843486038178  3.1036583308236851
  0.5919524655079832  8.4137931067026006  9.4041603456218397
  5.0385650125458268 12.9371673350397174  9.4316245232722284
  4.4033771143705147  7.9904502945487552  3.0976593210153500
  0.0164595355541897  4.8283355234588186  3.1164656119318348
  4.3128554793809943  0.5859238709604817  9.3931553569701549
  8.7382412828859355  3.6809321632494907  9.3682734158459500
  7.0656078335822787  6.9308877848580019 12.0746320193172529
  2.7929565356385249  5.7947106355394711  6.6199099812042723
  1.6048583487212256  1.5251725497791129  5.9080543423493435
  5.9713594469079654  2.6986019789036608  0.3464045056971355
  1.5668052803186203  1.5221111207099707  0.3513856300008202
  5.9976536687463478  2.7239644289976619  5.8901195838353377
  7.1635898724142093  6.9923884147887296  6.5878922114227283
  2.7290205939087810  5.7610633732805567 12.1956556002180267
  4.4059850221128238 16.5276046862745858  3.0786035227509645
  0.0190645854862233 13.3654921942016998  3.0974087700729753
  4.3154641236700897  9.1230810164398406  9.3740898154897803
  8.7408466515281535 12.2180905945271814  9.3492086576638460
  7.0682125507314053 15.4680473880064184 12.0555731648635138
  2.7955683333174361 14.3318562409446084  6.6008415362480708
  1.6074886528684467 10.0623646112449485  5.8889889249661111
  5.9739665648605165 11.2357606709413833  0.3273397134988641
  1.5694146854356663 10.0592723055721898  0.3323208792062815
  6.0002485159041870 11.2611356794394588  5.8710632163257097
  7.1662147237527698 15.5295707113505141  6.5688191182385216
  2.7316271041187865 14.2982229286227387 12.1765923735259385
  4.3435292293293628 -0.0052916284539564 -0.0162035089888490
  0.0152464554943272  4.2583169103922627  6.2701093841042823
  4.3855486841486000  0.0080719834747476  6.2758289484101084
 -0.0201401626177636  4.2567086703785080 -0.0148088973231500
  4.3461363660067089  8.5318640286514036 -0.0352679022588329
  0.0178532181936892 12.7954662300059425  6.2510490619318650
  4.3881572115009746  8.5452231398761391  6.2567652411120900
 -0.0175323263014507 12.7938665272147176 -0.0338737016397727
