Cs I  Pb
 1.0000000000000000
    12.7806363137246848    0.0000000000000000   -0.0000000000000001
     0.0000000000000004   12.7806363137245622   -0.0000000000000307
    -0.0000000000000003   -0.0000000000000373   12.7806363137246883
 Cs  I   Pb 
   8  24   8
Cartesian
  3.1951590784311832  3.1951590784311490  3.1951590784311765
  3.1951590784311867  3.1951590784311263  9.5854772352935171
  3.1951590784311827  9.5854772352934319  3.1951590784311605
  3.1951590784311827  9.5854772352934194  9.5854772352935083
  9.5854772352935296  3.1951590784311552  3.1951590784311867
  9.5854772352935242  3.1951590784311241  9.5854772352935189
  9.5854772352935225  9.5854772352934301  3.1951590784311663
  9.5854772352935260  9.5854772352934106  9.5854772352935029
  0.0000000000000147  0.0000000000000094  3.1951590784311827
  0.0000000000000039  3.1951590784311557 -0.0000000000000026
  3.1951590784311801  0.0000000000000155  0.0000000000000000
  0.0000000000000010 -0.0000000000000249  9.5854772352935260
  0.0000000000000090  3.1951590784311357  6.3903181568623548
  3.1951590784311792 -0.0000000000000017  6.3903181568623646
  0.0000000000000145  6.3903181568622793  3.1951590784311663
  0.0000000000000163  9.5854772352934372 -0.0000000000000036
  3.1951590784311783  6.3903181568622927 -0.0000000000000028
  0.0000000000000070  6.3903181568622740  9.5854772352935136
  0.0000000000000082  9.5854772352934212  6.3903181568623264
  3.1951590784311810  6.3903181568622767  6.3903181568623397
  6.3903181568623406  0.0000000000000214  3.1951590784311827
  6.3903181568623557  3.1951590784311561 -0.0000000000000147
  9.5854772352935260  0.0000000000000049  0.0000000000000175
  6.3903181568623575 -0.0000000000000348  9.5854772352935278
  6.3903181568623557  3.1951590784311374  6.3903181568623593
  9.5854772352935278 -0.0000000000000060  6.3903181568623451
  6.3903181568623477  6.3903181568622713  3.1951590784311654
  6.3903181568623442  9.5854772352934372  0.0000000000000030
  9.5854772352935242  6.3903181568623024  0.0000000000000014
  6.3903181568623575  6.3903181568622829  9.5854772352935100
  6.3903181568623557  9.5854772352934212  6.3903181568623122
  9.5854772352935260  6.3903181568622767  6.3903181568623308
  0.0000000000000125  0.0000000000000232  0.0000000000000094
  0.0000000000000095  0.0000000000000027  6.3903181568623575
  0.0000000000000102  6.3903181568622989 -0.0000000000000036
  0.0000000000000084  6.3903181568622820  6.3903181568623433
  6.3903181568623522  0.0000000000000186  0.0000000000000085
  6.3903181568623566  0.0000000000000033  6.3903181568623575
  6.3903181568623530  6.3903181568622953 -0.0000000000000027
  6.3903181568623504  6.3903181568622820  6.3903181568623397
