Cs I  Pb
 1.0000000000000000
    12.6757415024082043   -0.0000000000000000    0.0000000000000000
    -0.0000000000000001   12.6757415024082345   -0.0000000000000041
     0.0000000000000001   -0.0000000000000042   12.6757415024082061
 Cs  I   Pb 
   8  24   8
Cartesian
  3.1689353756020626  3.1689353756020684  3.1689353756020702
  3.1689353756020613  3.1689353756020662  9.5068061268061719
  3.1689353756020604  9.5068061268061825  3.1689353756020675
  3.1689353756020604  9.5068061268061808  9.5068061268061754
  9.5068061268061630  3.1689353756020688  3.1689353756020702
  9.5068061268061630  3.1689353756020671  9.5068061268061719
  9.5068061268061630  9.5068061268061808  3.1689353756020675
  9.5068061268061630  9.5068061268061825  9.5068061268061737
  0.0000000000000046  0.0000000000000013  3.1689353756020648
  0.0000000000000058  3.1689353756020613  0.0000000000000103
  3.1689353756020568  0.0000000000000028  0.0000000000000104
  0.0000000000000066  0.0000000000000003  9.5068061268061683
  0.0000000000000057  3.1689353756020600  6.3378707512041137
  3.1689353756020564  0.0000000000000042  6.3378707512041155
  0.0000000000000052  6.3378707512041217  3.1689353756020640
  0.0000000000000055  9.5068061268061843  0.0000000000000059
  3.1689353756020555  6.3378707512041235  0.0000000000000083
  0.0000000000000063  6.3378707512041181  9.5068061268061630
  0.0000000000000044  9.5068061268061808  6.3378707512041128
  3.1689353756020564  6.3378707512041190  6.3378707512041119
  6.3378707512041084  0.0000000000000034  3.1689353756020657
  6.3378707512041066  3.1689353756020635  0.0000000000000107
  9.5068061268061577  0.0000000000000020  0.0000000000000100
  6.3378707512041057  0.0000000000000020  9.5068061268061665
  6.3378707512041057  3.1689353756020608  6.3378707512041146
  9.5068061268061594  0.0000000000000045  6.3378707512041164
  6.3378707512041084  6.3378707512041208  3.1689353756020644
  6.3378707512041066  9.5068061268061825  0.0000000000000066
  9.5068061268061577  6.3378707512041244  0.0000000000000083
  6.3378707512041075  6.3378707512041181  9.5068061268061630
  6.3378707512041084  9.5068061268061808  6.3378707512041128
  9.5068061268061577  6.3378707512041172  6.3378707512041128
  0.0000000000000069  0.0000000000000081  0.0000000000000139
  0.0000000000000085  0.0000000000000046  6.3378707512041208
  0.0000000000000054  6.3378707512041270  0.0000000000000112
  0.0000000000000079  6.3378707512041261  6.3378707512041164
  6.3378707512041110  0.0000000000000063  0.0000000000000136
  6.3378707512041093  0.0000000000000037  6.3378707512041208
  6.3378707512041093  6.3378707512041261  0.0000000000000104
  6.3378707512041101  6.3378707512041261  6.3378707512041164
