Cs I  Pb
 1.0000000000000000
    10.8955822244179323   -0.0000000000000001    0.0000000000000004
    -0.0000000000000020    9.7154979073940559   -0.0000000000000112
     0.0000000000000041    0.0000000000000392   18.2922754503377831
 Cs  I   Pb 
   8  24   8
Cartesian
  4.6257588919737600  1.2144372384243030 12.3214386859866707
  0.8220322202351391  3.6433117152727887  3.1753009608177827
  6.2698233324440906  3.6433117152727976  5.9708367643511000
 10.0735500041827279  1.2144372384243005 15.1169744895199969
  4.6257588919737582  6.0721861921213227 12.3214386859866671
  0.8220322202351310  8.5010606689698172  3.1753009608177734
  6.2698233324441013  8.5010606689698207  5.9708367643511062
 10.0735500041827315  6.0721861921213334 15.1169744895199987
  1.8232114567324442  1.2144372384242623  0.0744516034403426
  3.6245796554764476  3.6433117152727994  9.2205893286092326
  9.0723707676854168  3.6433117152728136 18.2178238468974349
  7.2710025689414106  1.2144372384242896  9.0716861217285469
  3.1934517614312607  1.2144372384242665  5.2578759679994365
  2.2543393507776326  3.6433117152728181 14.4040136931683218
  7.7021304629866121  3.6433117152728083 13.0343994823383316
  8.6412428736402234  1.2144372384242856  3.8882617571694489
  0.2967616243749658  1.2144372384242859 11.1183000590283250
  5.1510294878339300  3.6433117152727861  1.9721623338594345
 10.5988206000429042  3.6433117152727892  7.1739753913094519
  5.7445527365839277  1.2144372384243063 16.3201131164783462
  1.8232114567324444  6.0721861921213067  0.0744516034403385
  3.6245796554764529  8.5010606689698296  9.2205893286092255
  9.0723707676854115  8.5010606689698527 18.2178238468974385
  7.2710025689414168  6.0721861921213121  9.0716861217285452
  3.1934517614312625  6.0721861921213138  5.2578759679994276
  2.2543393507776415  8.5010606689698403 14.4040136931683147
  7.7021304629865943  8.5010606689698456 13.0343994823383316
  8.6412428736402216  6.0721861921213049  3.8882617571694453
  0.2967616243749613  6.0721861921213245 11.1183000590283214
  5.1510294878339309  8.5010606689698101  1.9721623338594263
 10.5988206000428917  8.5010606689698278  7.1739753913094519
  5.7445527365839242  6.0721861921213343 16.3201131164783462
  1.7698960147221472  1.2144372384242865  8.0581248991944836
  3.6778950974867555  3.6433117152728278 17.2042626243633840
  9.1256862096957256  3.6433117152727990 10.2341505511432871
  7.2176871269311036  1.2144372384242788  1.0880128259744075
  1.7698960147221441  6.0721861921213227  8.0581248991944783
  3.6778950974867479  8.5010606689698474 17.2042626243633734
  9.1256862096957185  8.5010606689698349 10.2341505511432818
  7.2176871269311027  6.0721861921212854  1.0880128259744004
