Cs I  Pb
 1.0000000000000000
     8.8950820274774429   -0.0001639287348903   -0.0001051477401651
    -8.8953675139405206   15.4074420460545305    0.0000800346967859
    -0.0001228037474152   -0.0000236594511963   16.1567516698598403
 Cs  I   Pb 
   8  24   8
Cartesian
 -0.0002075124434061  5.1358191746970485  1.0559188086788995
  4.4476046852549338  2.5677683318734550  5.0951019252851371
 -0.0002728857758757  5.1358253952236792  9.1341198465616564
  4.4475436362888088  2.5679742267912919 13.1734462502461636
 -4.4478704922235854 12.8394529038597387  1.0559294895805758
 -0.0002667805023672 10.2715592460935241  5.0951070261751452
 -4.4479504171916906 12.8393943309227048  9.1342814458340253
 -0.0002730677174615 10.2714260881171224 13.1736215514633681
  7.0458413165777749  1.7932465135505449  2.1028236128170223
  3.8189993065072132  5.2052251045403288  2.1026844957352666
  2.4778156341212068  0.7047563218438074  2.1029698061611586
 -2.5984517205850395  5.9103672954624118  6.1419620235433019
  0.6284417583290318  2.4982007800320578  6.1420874224472470
  1.9695340110843049  6.9987594334439276  6.1418815239751714
  7.0458064702853953  1.7932633872496428 10.1811335024992307
  3.8189006801072964  5.2052741013272232 10.1810058132101169
  2.4777477893588009  0.7046948777960109 10.1813297623916306
 -2.5983466372453701  5.9104807736530613 14.2203243899043272
  0.6284281109611844  2.4982321223811828 14.2205072931634202
  1.9695911887813136  6.9985783066991916 14.2202484142868499
  2.5979896029008755  9.4968415461237061  2.1026265406010558
 -0.6287571180100409 12.9090402110236937  2.1028637476056171
 -1.9699960729567105  8.4085709549688925  2.1028762315824761
 -7.0461254159383504 13.6139879602148763  6.1421802758832467
 -3.8194274911432231 10.2019569968454586  6.1419367620954848
 -2.4780120575564459 14.7023968053633460  6.1420666765251433
  2.5979458205584138  9.4968606919876031 10.1810404571288728
 -0.6288706003768434 12.9090637853054346 10.1813102792828936
 -1.9700425152820493  8.4085833489014430 10.1811863887726943
 -7.0462454859238495 13.6139898290423194 14.2205723527155463
 -3.8195131573307313 10.2019289844796468 14.2203738145984016
 -2.4781244596610299 14.7025899672579854 14.2204996920657791
  0.0000673421014233  0.0000512333857100  0.0187578094599719
  0.0000208772405543 -0.0000601313896740  4.0579005654191249
  0.0000107039278203 -0.0000138619418513  8.0971233078952292
 -0.0000619219265026  0.0000023567276164 12.1363019920074997
 -4.4476830247778327  7.7037134341954268  0.0186105798104288
 -4.4477919528918113  7.7036613318102054  4.0577784147976379
 -4.4477778449626175  7.7037565774705339  8.0969700819232120
 -4.4478033795677199  7.7036743531289771 12.1361242308521984
