Cs I  Pb
 1.0000000000000000
     8.7030525218378259   -0.0000138226364340   -0.0000000184376891
    -8.7030764633462692   15.0741152834535832    0.0000000422820765
    -0.0000000335648431    0.0000000249230230   15.9726856961170434
 Cs  I   Pb 
   8  24   8
Cartesian
 -0.0000178391117778  5.0247059774143406  1.3134765961066939
  4.3515319792716163  2.5123374510725163  5.3066481252177971
 -0.0000177108078698  5.0247060359025904  9.2998196877818486
  4.3515319133337567  2.5123374066987649 13.2929911245237147
 -4.3515558605639129 12.5617637376725408  1.3134764855890158
 -0.0000061860377217 10.0493952419690054  5.3066479895454535
 -4.3515558731997528 12.5617635684807567  9.2998194936344554
 -0.0000062609907689 10.0493955079336974 13.2929911644600978
  6.4732435919258933  1.2873671143134786  2.0092469503733934
  4.3515175920837175  4.9622830908816660  2.0092476734137565
  2.2298092559768348  1.2873770179179536  2.0092477554881660
 -2.1217295335089967  6.2496770571195546  6.0024182537942989
 -0.0000030509278243  2.5747602454093856  6.0024187077759938
  2.1217043726032108  6.2496665329663807  6.0024189982737797
  6.4732443395342703  1.2873668051705867  9.9955895009829039
  4.3515174863537709  4.9622839422190443  9.9955903312556114
  2.2298092129144211  1.2873769636522643  9.9955903492111258
 -2.1217295530289850  6.2496768680381587 13.9887611088442068
 -0.0000033034493634  2.5747600967462283 13.9887620536024659
  2.1217047175638650  6.2496669650935832 13.9887619499366807
  2.1217054241151510  8.8244245137735717  2.0092470541339247
 -0.0000206239132357 12.4993408804195738  2.0092477793924046
 -2.1217285691838494  8.8244346762129542  2.0092475813618740
 -6.4732678930468763 13.7867347419785951  6.0024184402372560
 -4.3515415911722126 10.1118182404399910  6.0024191283731287
 -2.2298332663921614 13.7867241054397365  6.0024190754733118
  2.1217054566863811  8.8244244508584231  9.9955897227598722
 -0.0000205791474373 12.4993408919471332  9.9955899687156080
 -2.1217289918986610  8.8244347148333002  9.9955902752003478
 -6.4732680832894793 13.7867347424356499 13.9887612083915833
 -4.3515416773816487 10.1118177289050752 13.9887618999408776
 -2.2298328463724588 13.7867245998650318 13.9887617324428373
 -0.0000002424993147  0.0000004274193471 -0.0422615029885656
  0.0000004622772453  0.0000000339735472  3.9509110221573267
 -0.0000003445728494  0.0000004380798392  7.9440828141604092
 -0.0000000380302894  0.0000000382803320 11.9372548775281597
 -4.3515387875338103  7.5370581443806843 -0.0422609124373811
 -4.3515378406107255  7.5370579585933903  3.9509109083855534
 -4.3515381471199639  7.5370578371929202  7.9440830325854064
 -4.3515381032657174  7.5370576472780879 11.9372542610749441
