Cs I  Pb
 1.0000000000000000
    11.0843238106340198    0.0000000484229109    0.0000014273051390
     0.0000000481206233    9.7542046900125996    0.0000000054155923
     0.0000024675319537    0.0000000102113896   18.0506708850504012
 Cs  I   Pb 
   8  24   8
Cartesian
  4.8301926966065372  1.2192774703991787 12.1540001275380707
  0.7119379603939674  3.6578229108610065  3.1286662145350697
  6.2541262552859065  3.6578374317705498  5.8966876339467333
 10.3724034551682767  1.2192768304743757 14.9219912200456015
  4.8301950670083906  6.0963764584901075 12.1539939512207589
  0.7119386314080548  8.5349333968032273  3.1286669309568462
  6.2541278288966531  8.5349193558816765  5.8966865109268056
 10.3724032279909277  6.0963769916960873 14.9219943220302191
  1.8597707322475678  1.2192747478061634  0.0713945962513973
  3.6824222769516708  3.6578268505104812  9.0967029276267901
  9.2245735192464924  3.6578296244733437 17.9793113801849351
  7.4019171234383743  1.2192765675484634  8.9539432415786600
  3.1911647469722695  1.2192756142564571  5.1328759210815500
  2.3510252492488815  3.6578224516541145 14.1581869374345217
  7.8931613998248693  3.6578253043496503 12.9177936520806078
  8.7333252823490621  1.2192742111155812  3.8924845321901511
  0.2492395080342361  1.2192771194536942 10.9673778352432656
  5.2928909894780638  3.6578245928767537  1.9420449698654214
 10.8350382982628233  3.6578272108752734  7.0832888507754337
  5.7914061525344582  1.2192742913449506 16.1086083811682776
  1.8597731454847759  6.0963778955852623  0.0713931578745921
  3.6824238790647517  8.5349294303320402  9.0967060563963411
  9.2245733348939130  8.5349273076034748 17.9793103670356587
  7.4019250923016839  6.0963763781316658  8.9539492026100014
  3.1911648794208274  6.0963773001576635  5.1328845954233930
  2.3510229009194350  8.5349336149157935 14.1581832270830041
  7.8931567633106186  8.5349300153263563 12.9178024306297257
  8.7333092660323057  6.0963778556483321  3.8924719765612061
  0.2492355279056489  6.0963782385351006 10.9673744763343333
  5.2928930370732195  8.5349306284757933  1.9420443664922022
 10.8350403605259995  8.5349272875256172  7.0832852662489660
  5.7914252621393940  6.0963780409791060 16.1086105766261412
  1.8116431950589675  1.2192788012459608  7.9438428814004309
  3.7305396218941627  3.6578243795129759 16.9691647919668469
  9.2727129115690765  3.6578339183247883 10.1068351280689477
  7.3537529620891471  1.2192768348384000  1.0815180315595154
  1.8116436548594406  6.0963763191910560  7.9438440135185564
  3.7305415863637958  8.5349329945482690 16.9691689666061372
  9.2727129024118540  8.5349211851577564 10.1068304011492813
  7.3537766550952535  6.0963777013708382  1.0815266938577481
