Cs I  Pb
 1.0000000000000000
     8.6477802153098029   -0.0000585829449970    0.0000000000000530
    -8.6478816839464763   14.9783361226384510    0.0000000000001844
     0.0000000000000963   -0.0000000000000349   15.8984790407861585
 Cs  I   Pb 
   8  24   8
Cartesian
 -0.0000151224525143  4.9927483832013726  1.4741702553937479
  4.3238544957894955  2.4963610951728445  5.4487900155907543
 -0.0000151224524744  4.9927483832013309  9.4234097757871638
  4.3238544957895702  2.4963610951729360 13.3980295359840387
 -4.3239559644261059 12.4819164445203263  1.4741702553938256
 -0.0000863461829822  9.9855291564919728  5.4487900155906868
 -4.3239559644259096 12.4819164445198467  9.4234097757873325
 -0.0000863461829458  9.9855291564916460 13.3980295359845591
  6.4165455197723507  1.2881453691424913  1.9593650901922250
  4.3238898840960847  4.9136761172287047  1.9595269482797288
  2.2304159719351464  1.2876729369946658  1.9595269482755826
 -2.0927061464348640  6.2009641092310828  5.9339848503897858
 -0.0000505107590977  2.5754333611411431  5.9341467084771029
  2.0934234014038045  6.2014365413805344  5.9341467084727082
  6.4165455197720016  1.2881453691427414  9.9086046105845558
  4.3238898840959994  4.9136761172288317  9.9087664686735533
  2.2304159719352303  1.2876729369945676  9.9087664686691657
 -2.0927061464361039  6.2009641092318075 13.8832243707843048
 -0.0000505107591376  2.5754333611395190 13.8833862288709202
  2.0934234014058619  6.2014365413822023 13.8833862288663372
  2.0926046778027292  8.7773134304597953  1.9593650901934077
 -0.0000509578775525 12.4028441785549397  1.9595269482797302
 -2.0935248700361333  8.7768409983143254  1.9595269482758571
 -6.4166469884099282 13.6901321705513368  5.9339848503907353
 -4.3239913527317135 10.0646014224660423  5.9341467084763115
 -2.2305174405693715 13.6906046027002262  5.9341467084738797
  2.0926046778020377  8.7773134304600369  9.9086046105864263
 -0.0000509578774654 12.4028441785554495  9.9087664686735977
 -2.0935248700366831  8.7768409983140359  9.9087664686699739
 -6.4166469884103412 13.6901321705516601 13.8832243707848892
 -4.3239913527316558 10.0646014224643814 13.8833862288698988
 -2.2305174405687986 13.6906046027009012 13.8833862288665113
 -0.0003847605941095  0.0002221416376464 -0.0875407672719386
  0.0003847605934883 -0.0002221416434712  3.8870789929290464
 -0.0003847605951699  0.0002221416380544  7.8616987531220772
  0.0003847605934458 -0.0002221416438117 11.8363185133234072
 -4.3243256025717853  7.4893902029577655 -0.0875407672711638
 -4.3235560813845879  7.4889459196779065  3.8870789929280796
 -4.3243256025716716  7.4893902029580524  7.8616987531248208
 -4.3235560813838605  7.4889459196775672 11.8363185133219346
