Cs I  Pb
 1.0000000000000000
     8.8426417591835360   -0.0000079115266911    0.0000000173204707
    -0.0000023659067998   17.7463165505076574    0.0000000308955719
     0.0000000193498210    0.0000000058977191   12.9569105953350761
 Cs  I   Pb 
   8  24   8
Cartesian
  4.2218000551676225 -0.2611346662125004  3.2392283407003868
 -0.1997692811442995  4.6956913706306667  3.2392278469191198
  4.2230540637444465 -0.2603150728567900  9.7176828748246447
 -0.1979494449727613  4.6987703231879392  9.7176827286074090
  4.2217626294249753  8.6108572146030635  3.2392277249900370
 -0.1998233108859490 13.5700219646451945  3.2392278781943560
  4.2231209986064542  8.6139861803945355  9.7176828930236958
 -0.1979173348497495 13.5707934901457268  9.7176827246914552
  0.0410704501207954 -0.0194363206304941  3.2392272386799830
  4.4664518615924491  4.4565892787466197  3.2392274018655667
  7.2687658272073330  2.8281914324952666 -0.0027699852805600
  1.7082634708127440  6.1267164084447669  0.0025913331002775
  6.1295653320011070  7.1830565754557041 -0.0007386335014912
  2.8474241228991759  1.6084140770125652 -0.0000300418258357
  0.0440229465743979 -0.0237500638721551  9.7176830684161573
  4.4613368969366629  4.4597915506219712  9.7176831064457545
  7.2687657145198123  2.8281918021836532  6.4812255676730635
  1.7082638479380678  6.1267165196474549  6.4758640387387825
  6.1295658831751121  7.1830570561743450  6.4791939306411992
  2.8474245610262421  1.6084141399062946  6.4784848964102073
  0.0404436783681575  8.8524469693214218  3.2392276498884258
  4.4658083818199801 13.3309932066408479  3.2392280813007286
  7.2687843901271725 11.7013584575107163 -0.0017275840103542
  1.7082748536672117 14.9998799874233573  0.0020044137060590
  6.1295532085274527 16.0562130301702908 -0.0001545765184159
  2.8474424233252242 10.4815578781691077  0.0010100429093199
  0.0446996796453472  8.8506267029631687  9.7176827961613856
  4.4620132491274376 13.3316835922686767  9.7176832928185561
  7.2687836633240979 11.7013597146877384  6.4801832560449792
  1.7082757306457943 14.9998789882707797  6.4764506960508763
  6.1295523692968050 16.0562127904228156  6.4786094964039531
  2.8474425085699049 10.4815581156964388  6.4774453019241687
  0.0219089267196049  0.0391779458670362 -0.0000603419756330
  4.4432517198064900  4.3973889833498383 -0.0001292769596222
  0.0219090099969067  0.0391782179476200  6.4785156636126766
  4.4432516074513728  4.3973886441260897  6.4785841114554010
  0.0219196731841017  8.9123321957690376  0.0001633976220103
  4.4432557248766962 13.2705405277743083  0.0000956384469782
  0.0219195432347496  8.9123311062578026  6.4782919569822894
  4.4432551865191243 13.2705417430406722  6.4783592237024390
