Cs I  Pb
 1.0000000000000000
    10.8610197258645105    0.0079391998075953    0.0090456799079067
     0.0073135096989573    9.8067681353000626    0.0008290441327261
     0.0154100637200239    0.0015336623428234   18.1719431263567408
 Cs  I   Pb 
   8  24   8
Cartesian
  4.6105823128193153  1.2356093263404779 12.2446084439638678
  0.8297455816043486  3.6832035931660245  3.1598596741989891
  6.2609785835470140  3.6887282160251180  5.9329208068562709
 10.0467362240704432  1.2356198373318847 15.0219839472164054
  4.6142407024380825  6.1389922053054713 12.2450273307617774
  0.8334003740727750  8.5865902608947522  3.1602738516841291
  6.2646353767281839  8.5921098152972775  5.9333339122344899
 10.0503926005387925  6.1390020748972418 15.0223968706655580
  1.7870827823811317  1.2112957752083269  0.0430650797001616
  3.6583392098670844  3.6697247841224407  9.1210741510937066
  9.1032069053107527  3.6640892077407359 18.1434716588646303
  7.2254116487795486  1.2284298695388212  9.0491628268619202
  3.1988625419015611  1.2317059483563324  5.2090290948960893
  2.2475481251448213  3.6841219923649815 14.3085427230174762
  7.6698682718927476  3.6865025656214003 12.9684964033558146
  8.6267999150388732  1.2386407849188279  3.8825198930153904
  0.2843067735846776  1.2208830686124161 11.0540751260210399
  5.1614023862038909  3.6693018543612581  1.9771354363236471
 10.5965345452128599  3.6853144416453145  7.1222121071845299
  5.7301675593152810  1.2160515100682354 16.2083152982865819
  1.7907378713585098  6.1146787452544364  0.0434792055227025
  3.6619974585270856  8.5731088973658629  9.1214881804353993
  9.1068637991400969  8.5674720163545750 18.1438852793057350
  7.2290671068150889  6.1318126089553608  9.0495777220394125
  3.2025194485063100  6.1350904619891882  5.2094430302610437
  2.2512050820674241  8.5875092657955570 14.3089555529123249
  7.6735236818332719  8.5898878315384000 12.9689134590011008
  8.6304583716328427  6.1420248446004866  3.8829326113556015
  0.2879645944103553  6.1242657429804055 11.0544895844633242
  5.1650579055054369  8.5726854948997691  1.9775480698442460
 10.6001928057038644  8.5886972813386624  7.1226257741144519
  5.7338249158475376  6.1194381762039880 16.2087324505232004
  1.7822513281792203  1.2418470028479001  7.9987872265138549
  3.6765807103479999  3.6938679831328551 17.0975760725837880
  9.0951081352635725  3.7028697846593741 10.1789863202775681
  7.2093306813791598  1.2407889810297936  1.0921679305382692
  1.7859079834077043  6.1452311421545778  7.9992027638575998
  3.6802374507090776  8.5972539652868800 17.0979880875350609
  9.0987647920590735  8.6062521257213618 10.1793998014919573
  7.2129886033077533  6.1441733589194785  1.0925825404813483
