Cs I  Pb
 1.0000000000000000
     8.5381878648566989   -0.0002057854820236   -0.0000118303309985
    -8.5385444246341287   14.7893436209121916    0.0000054239718442
    -0.0000210387988685   -0.0000063882939278   16.1514924322133062
 Cs  I   Pb 
   8  24   8
Cartesian
  0.0000458429492891  4.9297674032634893  1.1798183127920205
  4.2688829707675051  2.4646713709162897  5.2177026137956428
 -0.0000063285970502  4.9298301339405919  9.2555826345574523
  4.2689084762272946  2.4646154561798213 13.2934283311383421
 -4.2692613101962094 12.3245572122797906  1.1798288003671542
 -0.0004064642832781  9.8592337202801641  5.2176893786126364
 -4.2692358375813120 12.3245378582420280  9.2555603352262654
 -0.0004165333957287  9.8593073035590741 13.2934523800197670
  6.1850455975128042  0.9448287781235295  2.0662338198548853
  4.6274981398373987  4.8841018288323701  2.0666183683770885
  1.9949493707021688  1.5656026081535086  2.0657837086191928
 -1.9161624679541067  6.4496344087776158  6.1041247599829731
 -0.3585700744006037  2.5103499731250669  6.1044530417735894
  2.2739537560432406  5.8288516330465292  6.1037127073926767
  6.1849866345741882  0.9448073187094045 10.1419447855355589
  4.6274791437390883  4.8840959872273713 10.1423503917799636
  1.9948890132417494  1.5656567734809737 10.1415633328798886
 -1.9160538499634026  6.4497056037429310 14.1799224995941362
 -0.3585732013982919  2.5103526710938149 14.1802121992554007
  2.2740480515507073  5.8287635318953921 14.1794042649367409
  1.9156088760742387  8.3394052956766824  2.0662014278693879
  0.3581932218034274 12.2787365081567685  2.0665925727240566
 -2.2744969105250172  8.9603946863517816  2.0658546302825589
 -6.1852674045471199 13.8443814701006964  6.1041211226349326
 -4.6278723466759546  9.9050538251155089  6.1044648271475115
 -1.9951663151239305 13.2234486406892238  6.1036658684155425
  1.9156726864114053  8.3394327502913672 10.1420646230428630
  0.3582294312438055 12.2787443312090705 10.1423021418488197
 -2.2744329693471714  8.9603545437603778 10.1415655400600784
 -6.1853461459645036 13.8443446975042690 14.1798438931437332
 -4.6278853532438031  9.9050458538181960 14.1802402454088732
 -1.9952326754220884 13.2234725043362982 14.1794209462085412
 -0.0000939050933038 -0.0002032279636288  0.0021507841683980
  0.0001427730491242  0.0001718172155122  4.0400515004275075
 -0.0000731731213708 -0.0002009211585841  8.0778976786269912
  0.0000795624594958  0.0001788672444293 12.1157788276809182
 -4.2693969157193292  7.3944994098415817  0.0021888414938796
 -4.2692534523134782  7.3948705714702854  4.0400702395392578
 -4.2694252960210335  7.3944975270522493  8.0779300349317005
 -4.2691707672336054  7.3948725280394711 12.1158352322192187
