Cs I  Pb
 1.0000000000000000
     8.3403643024187666    0.4031274970659061    0.2826209379425113
    -7.7511245277846577   16.1622300340173517   -0.0815642745422182
     0.4821301561626672    0.2397913871022502   16.3053159972426478
 Cs  I   Pb 
   8  24   8
Cartesian
  0.2399297788260601  5.2684238926758367  0.8677110520035398
  4.4949921060580174  3.3216288310553819  5.2804961593417383
  0.4810265602883688  5.3881325065353058  9.0204368864891720
  4.7361199475066131  3.4414930837851938 13.4329502627705129
 -3.6355917269160130 13.3494465271081033  0.8269376190345853
  0.6194294634566203 11.4026457880976437  5.2394932762173880
 -3.3946378171352851 13.4693832946381100  8.9796192772030690
  0.8605489990337732 11.5226262697120792 13.3923480637462013
  6.7827730276395322  2.3918702890327705  2.4055833243788083
  3.7622460850631745  6.0419825703681722  2.4788990948518101
  2.5552262248463111  0.5794337448064607  2.0951123092675532
 -2.0303799670036193  6.2214429159437792  6.1335496839969412
  0.8214933702818186  2.5714209163446848  6.2081003159890082
  2.1446239653036341  8.0208705330381793  6.5672422497410965
  7.0239031461468082  2.5118337952847578 10.5583174938860509
  4.0034803517566102  6.1617635286402770 10.6315862713104998
  2.7963454847760727  0.6992376230475082 10.2478585033052472
 -1.7894101714208879  6.3413313356235381 14.2860854238754413
  1.0624895780077164  2.6913419858330405 14.3607944483287380
  2.3856799510893660  8.1408818312457516 14.7198095545526133
  2.9072903993380206 10.4729899433280167  2.3647957669086299
 -0.1132319965510622 14.1230133570783742  2.4381638128927370
 -1.3202774295261104  8.6604240001661932  2.0544130053355798
 -5.9060461048097075 14.3025869616919454  6.0927636436474337
 -3.0541035154712688 10.6524703139840859  6.1673532450803110
 -1.7309064917934252 16.1020384517150070  6.5264418079685820
  3.1483087475271092 10.5929238761362399 10.5175355775592010
  0.1278072728560861 14.2429850906820850 10.5907184493700139
 -1.0792001597620975  8.7804407703686724 10.2070241135301316
 -5.6648539186272346 14.4224781437389709 14.2452899830463888
 -2.8130753169776281 10.7725560580871562 14.3200100878172503
 -1.4899435821565221 16.2219488480272211 14.6790467263873001
  0.0001782829360734 -0.0105995722137296  0.0768376375885517
  0.1302671770755031  0.0491482998033667  4.1370822903481912
  0.2412761464141594  0.1092096762476327  8.2297095814793746
  0.3713031148558577  0.1691158361685248 12.2899902434986164
 -3.8753712683630313  8.0706241461930190  0.0361352922718223
 -3.7452515717393515  8.1303068680095851  4.0965350730832926
 -3.6342857065603109  8.1902040379266428  8.1888416820564469
 -3.5042659589157381  8.2501714809279445 12.2489975120740002
