Cs I  Pb
 1.0000000000000000
    12.7739265265891202    0.0000001624660076    0.0000007891731891
     0.0000001624659996   12.7738080798787124    0.0000003501255325
     0.0000007891733694    0.0000003501251768   12.7737993046039797
 Cs  I   Pb 
   8  24   8
Cartesian
  3.1934818347092393  3.1934521212268434  3.1934500560245214
  3.1934821870552352  3.1934523147387175  9.5803497878176067
  3.1934819377441079  9.5803561289717880  3.1934503135944814
  3.1934823363286764  9.5803564008159725  9.5803499113353627
  9.5804451578058671  3.1934522905855531  3.1934504948516893
  9.5804456176821517  3.1934523619604449  9.5803501852771795
  9.5804452437440588  9.5803562486834348  3.1934506695904852
  9.5804456750105569  9.5803564370343715  9.5803503224454030
  0.0000000658739861  0.0000001222943402  3.1934498710299954
 -0.0000000041921746  3.1934520423882868  0.0000001784166355
  3.1934815692400536  0.0000000469240896  0.0000003287756039
  0.0000006308274757  0.0000002574144413  9.5803493709114189
  0.0000004173579348  3.1934522100738985  6.3868997044751197
  3.1934819692600440  0.0000002578913737  6.3869000213643909
  0.0000003644746122  6.3869039816604909  3.1934499816695827
  0.0000001208915382  9.5803560120569298  0.0000001039709482
  3.1934816828396597  6.3869041026402726  0.0000002372055370
  0.0000008058808781  6.3869041359028902  9.5803497540326692
  0.0000004991714450  9.5803562661425161  6.3868999921957155
  3.1934821841096803  6.3869043202185241  6.3868999462597147
  6.3869633353809396  0.0000000180639644  3.1934502894112318
  6.3869631468616355  3.1934519903291547  0.0000004716005333
  9.5804448361865404  0.0000000178103270  0.0000005923766843
  6.3869636719553480  0.0000003665718341  9.5803499113852641
  6.3869638001667024  3.1934522638561047  6.3869002495224327
  9.5804453076236626  0.0000002720209027  6.3869002448730949
  6.3869632987120557  6.3869041657130330  3.1934504093863247
  6.3869633896555067  9.5803561939309869  0.0000005123705881
  9.5804449962100247  6.3869041581622357  0.0000006073547320
  6.3869637632627336  6.3869043608728564  9.5803500235917358
  6.3869635969883491  9.5803562751172144  6.3869003251965495
  9.5804452132726947  6.3869044157149553  6.3869005187617827
 -0.0000000299084665 -0.0000000234665337  0.0000000379903999
  0.0000003184704485  0.0000001314163763  6.3868995873754217
  0.0000000976938332  6.3869040712761116  0.0000002520741721
  0.0000005052187032  6.3869042331742314  6.3868998261088121
  6.3869633480924755  0.0000001195561688  0.0000003639203053
  6.3869637049188244  0.0000002986310941  6.3869000407045595
  6.3869633587886403  6.3869040773906161  0.0000005970627151
  6.3869637757959268  6.3869042488443926  6.3869002117913558
