Cs I  Pb
 1.0000000000000000
     8.8609402983887549    0.0000000000000001    0.0000000000000000
     0.0000000000000006   17.7218805967777939   -0.0000000000000564
    -0.0000000000000008   -0.0000000000000179   12.9701193569626465
 Cs  I   Pb 
   8  24   8
Cartesian
  4.4304701491944884 -0.0000000000000251  3.2425298392406581
  0.0000000000000873  4.4304701491944112  3.2425298392406514
  4.4304701491943010  0.0000000000000206  9.7275895177219827
 -0.0000000000000528  4.4304701491944067  9.7275895177219684
  4.4304701491944476  8.8609402983888543  3.2425298392406328
  0.0000000000000817 13.2914104475833117  3.2425298392406172
  4.4304701491943224  8.8609402983889218  9.7275895177219525
 -0.0000000000000747 13.2914104475833188  9.7275895177219436
 -0.0000000000000630 -0.0000000000001108  3.2425298392406607
  4.4304701491943659  4.4304701491945311  3.2425298392406461
  7.2007613816747007  2.7702912324803322  0.0000000000000434
  1.6601789167140470  6.0906490659085346 -0.0000000000000681
  6.0906490659084227  7.2007613816747833 -0.0000000000001022
  2.7702912324803179  1.6601789167140895  0.0000000000000823
  0.0000000000000501  0.0000000000000788  9.7275895177219844
  4.4304701491943765  4.4304701491943099  9.7275895177219684
  7.2007613816746963  2.7702912324803224  6.4850596784812584
  1.6601789167140450  6.0906490659085284  6.4850596784813579
  6.0906490659084263  7.2007613816747744  6.4850596784813730
  2.7702912324803171  1.6601789167140815  6.4850596784812282
 -0.0000000000000470  8.8609402983887922  3.2425298392406323
  4.4304701491943685 13.2914104475834218  3.2425298392406194
  7.2007613816747016 11.6312315308692291  0.0000000000000111
  1.6601789167140464 14.9515893642974298 -0.0000000000000998
  6.0906490659084289 16.0617016800636776 -0.0000000000001413
  2.7702912324803211 10.5211192151029831  0.0000000000000422
  0.0000000000000372  8.8609402983889609  9.7275895177219560
  4.4304701491943810 13.2914104475832087  9.7275895177219436
  7.2007613816746980 11.6312315308692220  6.4850596784812335
  1.6601789167140424 14.9515893642974209  6.4850596784813304
  6.0906490659084263 16.0617016800636669  6.4850596784813570
  2.7702912324803206 10.5211192151029778  6.4850596784812158
 -0.0000000000000016 -0.0000000000000156  0.0000000000000010
  4.4304701491943748  4.4304701491944387 -0.0000000000000162
 -0.0000000000000042 -0.0000000000000246  6.4850596784813233
  4.4304701491943730  4.4304701491944298  6.4850596784813055
 -0.0000000000000001  8.8609402983888810 -0.0000000000000294
  4.4304701491943739 13.2914104475833312 -0.0000000000000428
 -0.0000000000000036  8.8609402983888721  6.4850596784812939
  4.4304701491943730 13.2914104475833259  6.4850596784812815
