Cs I  Pb
 1.0000000000000000
     8.6873560279376356    0.0000004823046153   -0.0000000000000024
    -8.6873551925615242   15.0469425061324866    0.0000000000000194
    -0.0000000000000044    0.0000000000000104   15.8183989538230367
 Cs  I   Pb 
   8  24   8
Cartesian
 -0.0000018349308809  5.0156488829782910  1.4115774051938752
  4.3436802665877581  2.5078228523925121  5.3661771436496162
 -0.0000018349308820  5.0156488829782973  9.3207768821053651
  4.3436802665877483  2.5078228523925175 13.2753766205611363
 -4.3436794312116422 12.5391201360447138  1.4115774051938808
  0.0000026703069915 10.0312941054585849  5.3661771436496171
 -4.3436794312116458 12.5391201360447138  9.3207768821053598
  0.0000026703069887 10.0312941054585956 13.2753766205611488
  6.4512197406961995  1.2910343696862288  1.9569498950712576
  4.3436782222180481  4.9414040263879455  1.9569508758853806
  2.2361361255498320  1.2910340358734080  1.9569508758853551
 -2.1075413090393460  6.2324373656846124  5.9115496335270841
  0.0000002094388041  2.5820677089828656  5.9115506143411434
  2.1075423061070575  6.2324376994974253  5.9115506143411682
  6.4512197406961782  1.2910343696862183  9.8661493719828162
  4.3436782222180756  4.9414040263879428  9.8661503527969376
  2.2361361255498218  1.2910340358734382  9.8661503527969110
 -2.1075413090393194  6.2324373656846133 13.8207491104385785
  0.0000002094387936  2.5820677089828883 13.8207500912526395
  2.1075423061070357  6.2324376994974067 13.8207500912526644
  2.1075421444149773  8.8145056227529963  1.9569498950712634
  0.0000006259372866 12.4648752794533042  1.9569508758853518
 -2.1075414707304612  8.8145052889401665  1.9569508758853569
 -6.4512189053196431 13.7559086187503432  5.9115496335270592
 -4.3436773868419483 10.1055389620499998  5.9115506143411460
 -2.2361352901741838 13.7559089525631499  5.9115506143411443
  2.1075421444149542  8.8145056227529839  9.8661493719828233
  0.0000006259373125 12.4648752794533060  9.8661503527969074
 -2.1075414707304705  8.8145052889402002  9.8661503527969145
 -6.4512189053196156 13.7559086187503485 13.8207491104385607
 -4.3436773868419616 10.1055389620500282 13.8207500912526449
 -2.2361352901741904 13.7559089525631322 13.8207500912526378
  0.0000001920346261 -0.0000001108704558 -0.0539743741015435
 -0.0000001920346278  0.0000001108720413  3.9006253643537616
  0.0000001920346254 -0.0000001108704471  7.8552251028098441
 -0.0000001920346337  0.0000001108720461 11.8098248412652449
 -4.3436774042461375  7.5234711421941620 -0.0539743741019512
 -4.3436777883153921  7.5234713639366539  3.9006253643542195
 -4.3436774042461437  7.5234711421941656  7.8552251028094231
 -4.3436777883154001  7.5234713639366655 11.8098248412657014
