Cs I  Pb
 1.0000000000000000
     8.2321163176898580   -0.0000000000000026    0.0000000000000000
    -8.2321163176898544   14.3098207900488035    0.0000000000000000
     0.0000000000000000    0.0000000000000000   16.1899543474707528
 Cs  I   Pb 
   8  24   8
Selective dynamics
Cartesian
 -0.0004116058158833  4.7595733422453801  1.1301996323406918   T   T   T
  4.1156465530290474  2.3958140468053504  5.1776882192083775   T   T   T
 -0.0004116058158833  4.7595733422453801  9.2251768060760675   T   T   T
  4.1156465530290474  2.3958140468053504 13.2726653929437539   T   T   T
 -4.1164697646608115 11.9144837372697836  1.1301996323406918   T   T   T
 -0.0004116058158816  9.5507244418297503  5.1776882192083775   T   T   T
 -4.1164697646608115 11.9144837372697836  9.2251768060760675   T   T   T
 -0.0004116058158816  9.5507244418297503 13.2726653929437539   T   T   T
  6.0995849478040114  1.2426308995664734  2.0826965763981682   T   T   T
  4.1156465530290474  4.6855353336463637  2.0730859235063783   T   T   T
  2.1317081582540784  1.2426308995664748  2.0826965763981682   T   T   T
 -1.9843500005908512  5.9127564894842548  6.1301851632658559   T   T   T
 -0.0004116058158841  2.4698520554043637  6.1205745103740687   T   T   T
  1.9835267889590846  5.9127564894842566  6.1301851632658559   T   T   T
  6.0995849478040114  1.2426308995664734 10.1776737501335504   T   T   T
  4.1156465530290474  4.6855353336463637 10.1680630972417578   T   T   T
  2.1317081582540784  1.2426308995664748 10.1776737501335504   T   T   T
 -1.9843500005908512  5.9127564894842548 14.2251623370012439   T   T   T
 -0.0004116058158841  2.4698520554043637 14.2155516841094425   T   T   T
  1.9835267889590846  5.9127564894842566 14.2251623370012439   T   T   T
  1.9835267889590855  8.3975412945908783  2.0826965763981682   T   T   T
 -0.0004116058158816 11.8404457286707583  2.0730859235063783   T   T   T
 -1.9843500005908510  8.3975412945908801  2.0826965763981682   T   T   T
 -6.1004081594357764 13.0676668845086574  6.1301851632658559   T   T   T
 -4.1164697646608115  9.6247624504287739  6.1205745103740687   T   T   T
 -2.1325313698858435 13.0676668845086574  6.1301851632658559   T   T   T
  1.9835267889590855  8.3975412945908783 10.1776737501335504   T   T   T
 -0.0004116058158816 11.8404457286707583 10.1680630972417578   T   T   T
 -1.9843500005908510  8.3975412945908801 10.1776737501335504   T   T   T
 -6.1004081594357764 13.0676668845086574 14.2251623370012439   T   T   T
 -4.1164697646608115  9.6247624504287739 14.2155516841094425   T   T   T
 -2.1325313698858435 13.0676668845086574 14.2251623370012439   T   T   T
 -0.0004116058158841  0.0060099805508690  0.0295638112047788   T   T   T
 -0.0004116058158841 -0.0055329865245365  4.0770523980724684   T   T   T
 -0.0004116058158841  0.0060099805508690  8.1245409849401575   T   T   T
 -0.0004116058158841 -0.0055329865245365 12.1720295718078386   T   T   T
 -4.1164697646608115  7.1609203755752686  0.0295638112047788   T   T   T
 -4.1164697646608115  7.1493774084998680  4.0770523980724684   T   T   T
 -4.1164697646608115  7.1609203755752686  8.1245409849401575   T   T   T
 -4.1164697646608115  7.1493774084998680 12.1720295718078386   T   T   T
