Cs I  Pb
 1.0000000000000000
     8.8203179086370991   -0.0000010050285200    0.0000000000000053
    -8.8203196493975362   15.2772377516402944    0.0000000000000123
     0.0000000000000099    0.0000000000000135   15.4959119413869306
 Cs  I   Pb 
   8  24   8
Cartesian
 -0.0000010832525426  5.0924125392772206  1.4432992943161256
  4.4101591671908578  2.5462053315143365  5.3172772796628607
 -0.0000010832525350  5.0924125392772259  9.1912552650095929
  4.4101591671908613  2.5462053315143560 13.0652332503563340
 -4.4101609079512993 12.7310314150973571  1.4432992943161338
 -0.0000006575079056 10.1848242073344775  5.3172772796628651
 -4.4101609079513011 12.7310314150973767  9.1912552650096018
 -0.0000006575078944 10.1848242073344917 13.0652332503563322
  6.5762957476141102  1.2955857937056123  1.8994289557137471
  4.4101581977957194  5.0474444188797154  1.8994290121098787
  2.2440220918962615  1.2955866273524232  1.8994290121098942
 -2.1661376636757703  6.3430320770859483  5.7734069410604665
 -0.0000001138573839  2.5911734519118585  5.7734069974566147
  2.1661359920420731  6.3430312434391523  5.7734069974566271
  6.5762957476141182  1.2955857937056323  9.6473849264072129
  4.4101581977957203  5.0474444188797225  9.6473849828033469
  2.2440220918962672  1.2955866273524386  9.6473849828033558
 -2.1661376636757756  6.3430320770859474 13.5213629117539238
 -0.0000001138573757  2.5911734519118674 13.5213629681500844
  2.1661359920420717  6.3430312434391611 13.5213629681500898
  2.1661359229153487  8.9342046695257782  1.8994289557137376
 -0.0000016269030480 12.6860632946998617  1.8994290121099091
 -2.1661377328024956  8.9342055031725618  1.8994290121098778
 -6.5762974883745393 13.9816509529061044  5.7734069410604896
 -4.4101599385561387 10.2297923277320155  5.7734069974565960
 -2.2440238326566950 13.9816501192592977  5.7734069974566546
  2.1661359229153487  8.9342046695257906  9.6473849264071934
 -0.0000016269030432 12.6860632946998724  9.6473849828033735
 -2.1661377328024942  8.9342055031725760  9.6473849828033451
 -6.5762974883745331 13.9816509529061150 13.5213629117539522
 -4.4101599385561405 10.2297923277320209 13.5213629681500649
 -2.2440238326566870 13.9816501192593048 13.5213629681501111
  0.0000000436636183 -0.0000000252092261 -0.0604968739533230
 -0.0000000436636116  0.0000000252091738  3.8134811113934126
  0.0000000436636219 -0.0000000252092172  7.6874590967401453
 -0.0000000436636054  0.0000000252091832 11.5614370820868739
 -4.4101597810351496  7.6386188506109214 -0.0604968739533373
 -4.4101598683623751  7.6386189010293180  3.8134811113934020
 -4.4101597810351434  7.6386188506109320  7.6874590967401302
 -4.4101598683623706  7.6386189010293251 11.5614370820868615
