Cs I  Pb
 1.0000000000000000
    10.7051405800787354    0.0000000000000000    0.0000000000000001
     0.0000000000000004    9.8804657545889700    0.0000000000003446
    -0.0000000000000087    0.0000000000004089   18.3023698821736289
 Cs  I   Pb 
   8  24   8
Cartesian
  4.4823467367625538  1.2350582193239690 12.3142836143319698
  0.8702235532763681  3.7051746579710207  3.1630986732452326
  6.2227938433157437  3.7051746579710549  5.9880862678417595
  9.8349170268019019  1.2350582193239796 15.1392712089284274
  4.4823467367625458  6.1752910966185013 12.3142836143321706
  0.8702235532763869  8.6454075352655106  3.1630986732454032
  6.2227938433157286  8.6454075352655497  5.9880862678419362
  9.8349170268018877  6.1752910966185066 15.1392712089286690
  1.7565621088671910  1.2350582193236843  0.0178627760038183
  3.5960081811717339  3.7051746579711291  9.1690477170907645
  8.9485784712110359  3.7051746579713147 18.2845071061698476
  7.1091323989065742  1.2350582193238713  9.1333221650829053
  3.1729388475932621  1.2350582193237907  5.2719140489223628
  2.1796314424456749  3.7051746579712579 14.4230989900093025
  7.5322017324850199  3.7051746579712286 13.0304558332513167
  8.5255091376325929  1.2350582193237771  3.8792708921644161
  0.2929534867755130  1.2350582193238842 11.1397254287025120
  5.0596168032633804  3.7051746579709555  1.9885404876157908
 10.4121870933027800  3.7051746579710874  7.1626444534712261
  5.6455237768148674  1.2350582193240365 16.3138293945579456
  1.7565621088671923  6.1752910966181833  0.0178627760039976
  3.5960081811717539  8.6454075352656830  9.1690477170909137
  8.9485784712110767  8.6454075352657842 18.2845071061700359
  7.1091323989065360  6.1752910966183441  9.1333221650830811
  3.1729388475932634  6.1752910966182872  5.2719140489225662
  2.1796314424456442  8.6454075352657380 14.4230989900094340
  7.5322017324850217  8.6454075352657256 13.0304558332514411
  8.5255091376326195  6.1752910966182579  3.8792708921646342
  0.2929534867755011  6.1752910966184382 11.1397254287027003
  5.0596168032634035  8.6454075352654769  1.9885404876159543
 10.4121870933027889  8.6454075352656030  7.1626444534713611
  5.6455237768148931  6.1752910966185546 16.3138293945581623
  1.7439521355131211  1.2350582193238608  8.0576232033550941
  3.6086181545257991  3.7051746579713107 17.2088081444420915
  8.9611884445651775  3.7051746579711362 10.2447466788186183
  7.0965224255524451  1.2350582193236639  1.0935617377316798
  1.7439521355131051  6.1752910966183743  8.0576232033552770
  3.6086181545258467  8.6454075352657842 17.2088081444421448
  8.9611884445651775  8.6454075352656403 10.2447466788187711
  7.0965224255524246  6.1752910966181886  1.0935617377319022
