Cs I  Pb
 1.0000000000000000
     8.8361476991637069    0.0032615390399599    0.0007123581030914
    -8.8304738830960527   15.2623148979773315   -0.0002845070485036
     0.0013105481879247    0.0004437800158701   15.7328307724388754
 Cs  I   Pb 
   8  24   8
Cartesian
  0.0012548281723460  5.0902993995882024  1.3827998596657909
  4.4228106244128327  2.5425523047957617  5.3166063140286699
 -0.0002443856980905  5.0883993511200662  9.2478368944712219
  4.4215885301905038  2.5454621976939107 13.1816029926041480
 -4.4122197631200910 12.7210642669595444  1.3826856099554605
  0.0060998830442128 10.1734308924938759  5.3172688026138086
 -4.4151885240093893 12.7248297983570513  9.2477540620506353
  0.0052696839338698 10.1751610236903289 13.1806521714701503
  6.3715520764135363  0.8241194960615674  2.1660562495631228
  4.9456805800629935  5.0847394201078107  2.1649377718527125
  1.9531640109438935  1.7217709852214729  2.1633199089003026
 -1.9471373876169404  6.8091264595462517  6.1012787609126855
 -0.5206355726603898  2.5477216129177815  6.0952596327301292
  2.4720361044429673  5.9112044686165861  6.0973387839641884
  6.3690928023514717  0.8276102517509564 10.0312708700480027
  4.9428508287872983  5.0882685560846479 10.0310056494014770
  1.9508838077900490  1.7220769504000120 10.0297145107537755
 -1.9468409101908055  6.8084381632117488 13.9620936761084131
 -0.5205341723423125  2.5472458984835882 13.9640854434972255
  2.4719301471674071  5.9117644159300289 13.9657137319956757
  1.9548963653087514  8.4552432386417937  2.1668680755999818
  0.5313668373429237 12.7162329225597190  2.1640426998387476
 -2.4625091316553291  9.3520530998561249  2.1638829921510365
 -6.3606460175295201 14.4397945224505229  6.0994339385104013
 -4.9373555264518814 10.1794377930992113  6.0952964908776082
 -1.9426835180378768 13.5426898488315519  6.0961457545580027
  1.9500310951949114  8.4562166061067412 10.0320508573899332
  0.5276992338144469 12.7179634812722693 10.0299960201476601
 -2.4686079924589110  9.3566353163661127 10.0302310846789435
 -6.3597129558554641 14.4400342194311264 13.9619686772952623
 -4.9374280422746963 10.1789715553353464 13.9655645816730676
 -1.9413670443034405 13.5419010143882552 13.9648665098685605
  0.0017585906744119 -0.0037826662462186  0.1546064823290557
  0.0070701681425113  0.0000947921361367  4.0871769770212492
 -0.0030231384152394 -0.0010917956096970  8.0204399685751202
  0.0023679423246252  0.0023810141675559 11.9543680860223720
 -4.4156493050799961  7.6273248733190266  0.1552273565890205
 -4.4100138623040595  7.6309764292983324  4.0875927237200980
 -4.4205522376639381  7.6328296076504509  8.0210248565677649
 -4.4152454990987238  7.6348913878627176 11.9544511266800768
