Cs I  Pb
 1.0000000000000000
     8.8373089971981891   -0.0000000000000000    0.0000000000000000
     0.0000000000000006   17.6746179943962929    0.0000000000000231
     0.0000000000000001   -0.0000000000000082   13.0064573181646104
 Cs  I   Pb 
   8  24   8
Cartesian
  4.4186544985992526  0.0000000000000600  3.2516143295411482
  0.0000000000000666  4.4186544985990110  3.2516143295411566
  4.4186544985991398  0.0000000000001183  9.7548429886234533
 -0.0000000000000411  4.4186544985990448  9.7548429886234640
  4.4186544985992100  8.8373089971981873  3.2516143295411601
  0.0000000000001197 13.2559634957971273  3.2516143295411695
  4.4186544985990741  8.8373089971982139  9.7548429886234640
 -0.0000000000000698 13.2559634957972037  9.7548429886234711
 -0.0000000000000623 -0.0000000000000435  3.2516143295411508
  4.4186544985990910  4.4186544985991025  3.2516143295411544
  7.1947518035397806  2.7760973049406656  0.0000000000000170
  1.6425571936583654  6.0612116922574293 -0.0000000000000137
  6.0612116922574639  7.1947518035397646 -0.0000000000000504
  2.7760973049406972  1.6425571936583716  0.0000000000000575
  0.0000000000000126  0.0000000000000414  9.7548429886234569
  4.4186544985990848  4.4186544985989862  9.7548429886234640
  7.1947518035397815  2.7760973049406612  6.5032286590822821
  1.6425571936583647  6.0612116922574257  6.5032286590823407
  6.0612116922574648  7.1947518035397611  6.5032286590823567
  2.7760973049406963  1.6425571936583669  6.5032286590822546
 -0.0000000000000477  8.8373089971980932  3.2516143295411615
  4.4186544985990714 13.2559634957972552  3.2516143295411646
  7.1947518035397842 11.6134063021388183  0.0000000000000411
  1.6425571936583585 14.8985206894555748 -0.0000000000000095
  6.0612116922574693 16.0320608007379128 -0.0000000000000471
  2.7760973049406958 10.4798661908565212  0.0000000000000698
  0.0000000000000229  8.8373089971981784  9.7548429886234675
  4.4186544985990972 13.2559634957971237  9.7548429886234729
  7.1947518035397842 11.6134063021388148  6.5032286590822777
  1.6425571936583605 14.8985206894555713  6.5032286590823638
  6.0612116922574701 16.0320608007379093  6.5032286590823736
  2.7760973049406923 10.4798661908565194  6.5032286590822679
  0.0000000000000046 -0.0000000000000223 -0.0000000000000020
  4.4186544985990830  4.4186544985990759  0.0000000000000029
  0.0000000000000023 -0.0000000000000274  6.5032286590823025
  4.4186544985990839  4.4186544985990697  6.5032286590823070
 -0.0000000000000039  8.8373089971981287  0.0000000000000070
  4.4186544985990839 13.2559634957972232  0.0000000000000157
 -0.0000000000000032  8.8373089971981251  6.5032286590823114
  4.4186544985990857 13.2559634957972197  6.5032286590823194
