Cs I  Pb
 1.0000000000000000
    12.6665970280681606    0.0000000001055268   -0.0000000020737254
     0.0000000001055882   12.6665971356993090    0.0000000009391166
    -0.0000000020735437    0.0000000009397027   12.6665970522591618
 Cs  I   Pb 
   8  24   8
Cartesian
  3.1666493772432238  3.1666494830810681  3.1666494642822607
  3.1666495050184222  3.1666493962200972  9.4999477284993610
  3.1666493414466665  9.4999476531128284  3.1666493534607101
  3.1666494344772933  9.4999477615715797  9.4999475956137847
  9.4999477894842617  3.1666494815255537  3.1666493239458195
  9.4999475275220124  3.1666493588375921  9.4999476697108811
  9.4999477030705002  9.4999477665134169  3.1666494558576770
  9.4999476024321385  9.4999478297472972  9.4999476446211695
  0.0000000405987363  0.0000000814101266  3.1666491972771755
 -0.0000000527769931  3.1666492256698633 -0.0000000140434493
  3.1666492018191170  0.0000000365210688  0.0000000567567368
  0.0000001203706420  0.0000001033922905  9.4999478537525341
  0.0000000143356271  3.1666492631751022  6.3332984892495539
  3.1666493159237206 -0.0000000274264558  6.3332984665129306
  0.0000001932669033  6.3332984712072760  3.1666491756367376
 -0.0000000512835155  9.4999480564030865  0.0000000014319356
  3.1666494229932338  6.3332986511915825  0.0000000089215260
 -0.0000000272187429  6.3332984337763278  9.4999475939198419
  0.0000001181037224  9.4999477870828049  6.3332984833341710
  3.1666494465006059  6.3332985752482838  6.3332984081692141
  6.3332983736500852 -0.0000000540452814  3.1666492215351840
  6.3332985303686398  3.1666492927494292  0.0000000408078973
  9.4999478231488137  0.0000001451072018 -0.0000000735347077
  6.3332985018019947  0.0000000587626983  9.4999477748410488
  6.3332984661178617  3.1666492255665037  6.3332985759730551
  9.4999477250993785  0.0000000661093228  6.3332985265495525
  6.3332983690415219  6.3332985084678421  3.1666492887238502
  6.3332984232497314  9.4999480037272086  0.0000001681987356
  9.4999476646489498  6.3332984331839608  0.0000001066360042
  6.3332985012467731  6.3332986068704420  9.4999477710332574
  6.3332983751499929  9.4999478386498701  6.3332985086588529
  9.4999477903639473  6.3332983427722125  6.3332984007564725
  0.0000001167913568 -0.0000000302048648  0.0000001682589551
  0.0000001330539618 -0.0000001917311260  6.3332984052660803
  0.0000001584170458  6.3332984199137350  0.0000002259263176
 -0.0000002140588258  6.3332988407110822  6.3332985654192564
  6.3332984010520530  0.0000000053832017 -0.0000001344142656
  6.3332983273817902  0.0000001100628217  6.3332987068750537
  6.3332984013477329  6.3332984319957113  0.0000000121633488
  6.3332985395047654  6.3332984764736526  6.3332984936823378
