Cs I  Pb
 1.0000000000000000
     9.2891723225377980   -0.0000000000000000    0.0000000000000000
     0.0000000000000010   16.9254950979590539   -0.0000000000000162
     0.0000000000000002   -0.0000000000000129   12.7124706465831139
 Cs  I   Pb 
   8  24   8
Cartesian
  8.4555587757460700  8.7980076835231937  3.1781176616457563
  3.8109726144771514  3.8961136399461807  3.1781176616457620
  0.8336135467917292 -0.3352601345435828  9.5343529849373247
  5.4781997080606173  4.5666339090334160  9.5343529849373159
  8.4555587757460700 17.2607552325027278  3.1781176616457545
  3.8109726144771718 12.3588611889257152  3.1781176616457567
  0.8336135467917267  8.1274874144359348  9.5343529849373159
  5.4781997080606315 13.0293814580129474  9.5343529849373123
  4.7013315739469030  7.7705456176531165  3.1781176616457558
  0.0567454126780058  4.9235757058162459  3.1781176616457616
  4.5878407485909021  0.6922019313264800  9.5343529849373176
  9.2324269098598073  3.5391718431633556  9.5343529849373176
  7.4854625137880246  6.9028576743208490 12.2047241215159836
  2.8408763525191225  5.7912636491485063  6.8639818483586446
  1.8037098087497809  1.5598898746587475  5.8484887982244373
  6.4482959700186742  2.6714838998310944  0.5077465250670909
  1.8037098087497789  1.5598898746587524  0.5077465250670945
  6.4482959700186715  2.6714838998310886  5.8484887982244382
  7.4854625137880220  6.9028576743208605  6.8639818483586481
  2.8408763525191212  5.7912636491484992 12.2047241215159836
  4.7013315739469004 16.2332931666326523  3.1781176616457478
  0.0567454126779976 13.3863232547957782  3.1781176616457496
  4.5878407485909012  9.1549494803060032  9.5343529849373176
  9.2324269098597966 12.0019193921428684  9.5343529849373070
  7.4854625137880264 15.3656052233003777 12.2047241215159765
  2.8408763525191234 14.2540111981280369  6.8639818483586410
  1.8037098087497767 10.0226374236382725  5.8484887982244187
  6.4482959700186750 11.1342314488106293  0.5077465250670913
  1.8037098087497747 10.0226374236382796  0.5077465250670923
  6.4482959700186742 11.1342314488106222  5.8484887982244222
  7.4854625137880246 15.3656052233003813  6.8639818483586401
  2.8408763525191207 14.2540111981280333 12.2047241215159694
  4.6445861612688981  0.0000000000000406 -0.0000000000000129
 -0.0000000000000025  4.2313737744897946  6.3562353232915418
  4.6445861612688972  0.0000000000000393  6.3562353232915410
 -0.0000000000000009  4.2313737744898035 -0.0000000000000228
  4.6445861612688990  8.4627475489795785 -0.0000000000000246
 -0.0000000000000068 12.6941213234693322  6.3562353232915321
  4.6445861612688972  8.4627475489795643  6.3562353232915401
 -0.0000000000000016 12.6941213234693286 -0.0000000000000290
