Cs I  Pb
 1.0000000000000000
     9.2608521111600339   -0.0000000000087212   -0.0000000030525628
    -0.0000000000176815   16.9766365945411941    0.0000000178857854
    -0.0000000044396368    0.0000000127694407   12.6501740397611133
 Cs  I   Pb 
   8  24   8
Cartesian
  8.4535772764528705  8.7735233759822489  3.1625435689206438
  3.8231511167133312  3.9589541020466599  3.1625435547475167
  0.8072749126287430 -0.2852051163598322  9.4876304903672164
  5.4377009205446019  4.5293642992483862  9.4876304968059983
  8.4535772285647326 17.2618416303201236  3.1625435628439713
  3.8231511302743084 12.4472724036618025  3.1625435882175914
  0.8072749470655460  8.2031132217805354  9.4876304944914072
  5.4377009170204111 13.0176825509230927  9.4876304871923409
  4.7416651168247457  7.7757961993876803  3.1625428285636188
  0.1112390427862635  4.9566812089428280  3.1625434027815853
  4.5191870049304219  0.7125221010873447  9.4876311731405476
  9.1496130396967885  3.5316370933489263  9.4876306468629767
  7.4467629427596984  6.9044669617117513 12.1203721919351946
  2.8163369327703789  5.8280105004795466  6.8548889207779569
  1.8140892336213159  1.5838512098665094  5.7952850517490742
  6.4445152162453878  2.6603079054463863  0.5298019539652186
  1.8140891377839790  1.5838513102238854  0.5298019360926534
  6.4445150959114592  2.6603078128411108  5.7952850298585350
  7.4467628900635763  6.9044670569138029  6.8548889338543706
  2.8163368164992768  5.8280104415496830 12.1203722040985848
  4.7416651138550527 16.2641145755750607  3.1625428820156909
  0.1112390483876540 13.4449995400532138  3.1625432520883607
  4.5191870031101482  9.2008403467401223  9.4876312385113213
  9.1496130325523293 12.0199553835675292  9.4876308207759941
  7.4467629027639157 15.3927853145697480 12.1203721869946488
  2.8163370516093003 14.3163289252059496  6.8548889473375381
  1.8140892523147196 10.0721694516361318  5.7952850294387597
  6.4445152143493800 11.1486262070532582  0.5298019780411329
  1.8140891278439808 10.0721695915562961  0.5298019645570703
  6.4445150572055239 11.1486260918243687  5.7952850090771628
  7.4467627723199863 15.3927854936831832  6.8548889605004417
  2.8163368582778827 14.3163287922614959 12.1203722032710353
  4.6304260120729968 -0.0000002771245028 -0.0000000564871011
  0.0000001660452562  4.2441592899546032  6.3250871474420469
  4.6304259788740127 -0.0000002603715522  6.3250870663783303
  0.0000001702462163  4.2441593356968941 -0.0000001395196469
  4.6304259850746918  8.4883181218973025 -0.0000003250496915
  0.0000001586172433 12.7324774906696430  6.3250871706125578
  4.6304259312120459  8.4883182529275931  6.3250873114482982
  0.0000001647458316 12.7324775892541879 -0.0000001641358794
