Cs I  Pb
 1.0000000000000000
     9.2603189004793318   -0.0000000000000001    0.0000000000000001
    -0.0000000000000010   16.9779194508419913   -0.0000000000000151
    -0.0000000000000011    0.0000000000000045   12.6501737122605089
 Cs  I   Pb 
   8  24   8
Cartesian
  8.4532983389825702  8.7739672425842183  3.1625434280651130
  3.8231388887429052  3.9594723455473870  3.1625434280651201
  0.8070205614967539 -0.2850075171631105  9.4876302841953830
  5.4371800117364195  4.5294873798737196  9.4876302841953652
  8.4532983389825649 17.2629269680052069  3.1625434280651032
  3.8231388887429070 12.4484320709683765  3.1625434280651086
  0.8070205614967546  8.2039522082578866  9.4876302841953688
  5.4371800117364169 13.0184471052947170  9.4876302841953617
  4.7412377150745009  7.7764534002611070  3.1625434280651006
  0.1110782648348332  4.9569861878704913  3.1625434280650868
  4.5190811854048274  0.7125063251600000  9.4876302841953795
  9.1492406356444924  3.5319735375506065  9.4876302841954026
  7.4463225775515092  6.9048248729958654 12.1204090087194007
  2.8161631273118415  5.8286147151357319  6.8548515596713395
  1.8139963229278213  1.5841348524252363  5.7953221525891534
  6.4441557731674903  2.6603450102853707  0.5297647035410842
  1.8139963229278182  1.5841348524252430  0.5297647035410800
  6.4441557731674850  2.6603450102853676  5.7953221525891561
  7.4463225775515083  6.9048248729958672  6.8548515596713404
  2.8161631273118402  5.8286147151357319 12.1204090087193990
  4.7412377150745044 16.2654131256821017  3.1625434280651068
  0.1110782648348361 13.4459459132914834  3.1625434280651099
  4.5190811854048212  9.2014660505809971  9.4876302841953830
  9.1492406356444906 12.0209332629716048  9.4876302841953688
  7.4463225775515038 15.3937845984168629 12.1204090087193936
  2.8161631273118348 14.3175744405567240  6.8548515596713324
  1.8139963229278135 10.0730945778462342  5.7953221525891463
  6.4441557731674850 11.1493047357063624  0.5297647035410776
  1.8139963229278209 10.0730945778462253  0.5297647035410717
  6.4441557731674912 11.1493047357063713  5.7953221525891463
  7.4463225775515118 15.3937845984168611  6.8548515596713315
  2.8161631273118406 14.3175744405567293 12.1204090087193919
  4.6301594502396597  0.0000000000000423  0.0000000000000127
 -0.0000000000000037  4.2444798627105538  6.3250868561302358
  4.6301594502396677  0.0000000000000554  6.3250868561302243
  0.0000000000000036  4.2444798627105458  0.0000000000000005
  4.6301594502396597  8.4889597254210472 -0.0000000000000093
 -0.0000000000000038 12.7334395881315441  6.3250868561302225
  4.6301594502396695  8.4889597254210454  6.3250868561302376
  0.0000000000000081 12.7334395881315423 -0.0000000000000009
