Cs I  Pb
 1.0000000000000000
    10.6956539392789072    0.0000000000000000   -0.0000000000000001
    -0.0000000000000001    9.8902485886130087   -0.0000000000000249
     0.0000000000000000   -0.0000000000000774   18.0656929677204232
 Cs  I   Pb 
   8  24   8
Cartesian
  4.5189613608762871  1.2362810735765819 12.1502258268559178
  0.8288656087631258  3.7088432207298703  3.1173793429956982
  6.1766925784025775  3.7088432207298672  5.9154671408644912
  9.8667883305157353  1.2362810735765764 14.9483136247247046
  4.5189613608762871  6.1814053678830847 12.1502258268559018
  0.8288656087631256  8.6539675150363724  3.1173793429956858
  6.1766925784025757  8.6539675150363724  5.9154671408644770
  9.8667883305157371  6.1814053678830794 14.9483136247246939
  1.7605112902678897  1.2362810735766334  0.0300031828621368
  3.5873156793715171  3.7088432207298490  9.0628496667223430
  8.9351426490109738  3.7088432207298148 18.0356897848582740
  7.1083382599073452  1.2362810735766003  9.0028433009980677
  3.1618256524820776  1.2362810735766125  5.1588864138592063
  2.1860013171573360  3.7088432207298245 14.1917328977194170
  7.5338282867967887  3.7088432207298343 12.9068065538611982
  8.5096526221215321  1.2362810735766190  3.8739600700009964
  0.2899732639094728  1.2362810735766003 11.0114718341184119
  5.0578537057299311  3.7088432207298907  1.9786253502582003
 10.4056806753693909  3.7088432207298498  7.0542211336019935
  5.6378002335489263  1.2362810735765599 16.0870676174622069
  1.7605112902678917  6.1814053678831380  0.0300031828621244
  3.5873156793715175  8.6539675150363475  9.0628496667223271
  8.9351426490109702  8.6539675150363156 18.0356897848582598
  7.1083382599073444  6.1814053678831034  9.0028433009980553
  3.1618256524820807  6.1814053678831176  5.1588864138591921
  2.1860013171573365  8.6539675150363333 14.1917328977194046
  7.5338282867967861  8.6539675150363404 12.9068065538611858
  8.5096526221215321  6.1814053678831264  3.8739600700009809
  0.2899732639094719  6.1814053678831007 11.0114718341183995
  5.0578537057299346  8.6539675150363937  1.9786253502581870
 10.4056806753693891  8.6539675150363511  7.0542211336019802
  5.6378002335489255  6.1814053678830598 16.0870676174621963
  1.7382220213863524  1.2362810735766006  7.9361881303371984
  3.6096049482530592  3.7088432207298117 16.9690346141973976
  8.9574319178925119  3.7088432207298507 10.1295048373832159
  7.0860489910258089  1.2362810735766367  1.0966583535229999
  1.7382220213863544  6.1814053678831025  7.9361881303371851
  3.6096049482530570  8.6539675150363138 16.9690346141973905
  8.9574319178925101  8.6539675150363546 10.1295048373832000
  7.0860489910258062  6.1814053678831407  1.0966583535229886
