Cs I  Pb
 1.0000000000000000
    12.6599573871522075    0.0004378553254807   -0.0126428379811308
     0.0004398359009078   12.6360684006157555   -0.0063082322918039
    -0.0125799362215932   -0.0062938773080792   12.6318502897130553
 Cs  I   Pb 
   8  24   8
Cartesian
  2.6547596406152127  3.4595420016731473  3.1536110599428278
  3.6779911092058497  2.8609765047652687  9.4559763884176196
  2.8606492923551317  9.9948109618954106  3.1399228413227407
  3.4586847917947274  8.9624209616058135  9.4656131667642178
  9.1915743119694113  3.6763583310095842  3.1363505936084990
  9.7904038769164394  2.6458958040771940  9.4617574933888999
  8.9846542581150199  9.7780101151428394  3.1438815378046829
 10.0079563484334582  9.1796781341411595  9.4464230091258070
 -0.4675868323548483 -0.5715420120381702  3.1697724678830586
 -0.5666470823444552  3.1668928290330474  0.5382452574198978
  3.1713838271418084  0.5842753959127880  0.5191325837953668
  0.4607629045059464  0.5858156632940309  9.4876371476713537
 -0.5861014854250302  3.1685553306612158  5.7832988181223248
  3.1557020059761225  0.5969865088379479  5.8127819809276824
  0.5754572389325678  6.7889993821107817  3.1708341231207018
  0.6021057677554770  9.4832788038195499 -0.5175606082318471
  3.1734950834240361  5.7412050949214706 -0.5221018637486359
 -0.5860483871112049  5.8436124860603229  9.4855001326544581
  0.5785415096540241  9.4849509120367550  6.8414585978079963
  3.1598838357973684  5.7532151102673996  6.8353603977029191
  6.9050021730300433  0.4718521799454667  3.1678534908338083
  6.9316754812919452  3.1651612894256784 -0.5225700777954546
  9.5030077765701719 -0.5757914341667489 -0.5261566075784553
  5.7420686250132551 -0.4761827927824600  9.4824859059831663
  6.9073352193589335  3.1668653138364666  6.8404609206312372
  9.4894148248947889 -0.5642106635921200  6.8326663165582957
  5.8638401566575133  5.7449164623216067  3.1604069877581495
  5.7640710423228851  9.4847812322054050  0.5308437966576830
  9.5018802889581266  6.9027854198316971  0.5089625378685294
  6.7900031326945181  6.9053595061247188  9.4782605330253080
  5.7450519317579962  9.4864824381638311  5.7718324737371898
  9.4862109511557247  6.9156909672705629  5.8035265961578677
 -0.0079283572217924 -0.0439207846487116 -0.0369377426082924
 -0.0179237330338395 -0.0307852746161488  6.3045571542129322
 -0.0405039756497003  6.2781290879439666 -0.0140534624660832
 -0.0226290920723817  6.3041083681248695  6.2795460961268477
  6.2889925423990700 -0.0409364024778867 -0.0164367871431154
  6.3067205944372615 -0.0146337906092191  6.2773657541915586
  6.3224802667060249  6.2728298899225408 -0.0457453627347592
  6.3127669038982548  6.2871371200511286  6.2960337950644298
