Cs I  Pb
 1.0000000000000000
    12.7514788303285336   -0.0000000000000000   -0.0000000000000000
    -0.0000000000000001   12.7514788303283488   -0.0000000000000544
     0.0000000000000003   -0.0000000000000158   12.7514788303283773
 Cs  I   Pb 
   8  24   8
Cartesian
  3.1878697075821618  3.1878697075820850  3.1878697075820943
  3.1878697075821627  3.1878697075820908  9.5636091227462874
  3.1878697075821640  9.5636091227462661  3.1878697075820659
  3.1878697075821592  9.5636091227462607  9.5636091227462519
  9.5636091227464295  3.1878697075820992  3.1878697075820970
  9.5636091227464277  3.1878697075820850  9.5636091227462892
  9.5636091227464330  9.5636091227462714  3.1878697075820628
  9.5636091227464313  9.5636091227462643  9.5636091227462483
 -0.0000000000000017 -0.0000000000000075  3.1878697075821010
  0.0000000000000105  3.1878697075820996  0.0000000000000039
  3.1878697075821432  0.0000000000000073  0.0000000000000140
  0.0000000000000168  0.0000000000000105  9.5636091227462909
  0.0000000000000022  3.1878697075820934  6.3757394151641673
  3.1878697075821445  0.0000000000000059  6.3757394151641895
  0.0000000000000070  6.3757394151642002  3.1878697075820739
  0.0000000000000045  9.5636091227462732 -0.0000000000000478
  3.1878697075821445  6.3757394151641913 -0.0000000000000224
  0.0000000000000078  6.3757394151641655  9.5636091227462643
  0.0000000000000129  9.5636091227462643  6.3757394151641700
  3.1878697075821432  6.3757394151641789  6.3757394151641709
  6.3757394151642846 -0.0000000000000038  3.1878697075820996
  6.3757394151642757  3.1878697075820988 -0.0000000000000001
  9.5636091227464135  0.0000000000000127 -0.0000000000000041
  6.3757394151642695  0.0000000000000051  9.5636091227462927
  6.3757394151642819  3.1878697075820921  6.3757394151641753
  9.5636091227464117 -0.0000000000000068  6.3757394151642055
  6.3757394151642766  6.3757394151641931  3.1878697075820717
  6.3757394151642801  9.5636091227462714 -0.0000000000000430
  9.5636091227464117  6.3757394151641860 -0.0000000000000210
  6.3757394151642774  6.3757394151641682  9.5636091227462678
  6.3757394151642712  9.5636091227462625  6.3757394151641664
  9.5636091227464135  6.3757394151641851  6.3757394151641691
  0.0000000000000112  0.0000000000000111  0.0000000000000095
  0.0000000000000117  0.0000000000000059  6.3757394151641940
  0.0000000000000085  6.3757394151641904 -0.0000000000000198
  0.0000000000000098  6.3757394151641789  6.3757394151641664
  6.3757394151642766  0.0000000000000153  0.0000000000000101
  6.3757394151642783  0.0000000000000048  6.3757394151641940
  6.3757394151642801  6.3757394151641842 -0.0000000000000170
  6.3757394151642792  6.3757394151641797  6.3757394151641691
