Cs I  Pb
 1.0000000000000000
    12.7800909165501775    0.0000000393704337    0.0000000220021830
     0.0000000393704646   12.7800909420767894   -0.0000000230528250
     0.0000000220021570   -0.0000000230527186   12.7800908714882855
 Cs  I   Pb 
   8  24   8
Cartesian
  3.1950257523192622  3.1950251430912089  3.1950251235529241
  3.1950261383812135  3.1950255119518269  9.5850694406849861
  3.1950253451711732  9.5850696612043222  3.1950250062857588
  3.1950259401708276  9.5850691815799625  9.5850690185946839
  9.5850679155070377  3.1950251802438414  3.1950249571989993
  9.5850683151670246  3.1950253951555521  9.5850691888913850
  9.5850677407958429  9.5850688670393271  3.1950248565387893
  9.5850687234849037  9.5850694376365446  9.5850690451367466
 -0.0000015513397653 -0.0000017670357696  3.1950245641390587
 -0.0000027694293178  3.1950254815330132 -0.0000008956302411
  3.1950237579950769 -0.0000023537129234 -0.0000009056590355
 -0.0000014453480542 -0.0000008703988757  9.5850666926547312
 -0.0000023302977057  3.1950238436697584  6.3900436238010458
  3.1950246345161468 -0.0000019413709907  6.3900440260639222
 -0.0000018491095027  6.3900459719368143  3.1950243797480495
 -0.0000013545198628  9.5850668589943275  0.0000001899100310
  3.1950244284791922  6.3900448463708663 -0.0000008600630638
 -0.0000012016066809  6.3900452089782860  9.5850667385231780
 -0.0000011310738351  9.5850657468177545  6.3900442074348582
  3.1950240536669119  6.3900459352533261  6.3900442135738933
  6.3900471215432697 -0.0000018473677846  3.1950248994371551
  6.3900468043429592  3.1950257072927926 -0.0000009952448931
  9.5850666044787616 -0.0000008539017829 -0.0000004713944810
  6.3900457958777794 -0.0000011916715493  9.5850672673366226
  6.3900469405694080  3.1950256684555662  6.3900445758185871
  9.5850669696020532 -0.0000005064235888  6.3900445155664478
  6.3900466647300203  6.3900459366053024  3.1950253509786286
  6.3900454205572776  9.5850663472448900  0.0000001250569358
  9.5850650117960683  6.3900438305785396  0.0000004496072410
  6.3900458880727120  6.3900450243579270  9.5850651138105096
  6.3900457263850994  9.5850661161009469  6.3900441156178873
  9.5850659906689817  6.3900444586722633  6.3900441058307056
 -0.0000002844210221 -0.0000008524027366 -0.0000006956307698
 -0.0000015583768753 -0.0000005741896927  6.3900467314898961
 -0.0000006396463098  6.3900450477359874 -0.0000003864349219
 -0.0000010373639857  6.3900470144779256  6.3900450590472548
  6.3900461161285262 -0.0000014715015327 -0.0000012628052775
  6.3900451286157489 -0.0000019690246643  6.3900459113388415
  6.3900462010125523  6.3900459677866221 -0.0000025136068334
  6.3900457315582440  6.3900463229319904  6.3900476673711060
