Cs I  Pb
 1.0000000000000000
     8.7080617707576273    0.0000043206541131   -0.0000000000000007
    -8.7080542871651740   15.0828097430548631   -0.0000000000000657
    -0.0000000000000013   -0.0000000000000231   15.8938184944604934
 Cs  I   Pb 
   8  24   8
Cartesian
  0.0000330806320270  5.0275870290092168  1.4172130823742710
  4.3540015465430244  2.5138221631723288  5.3906677059894008
  0.0000330806320153  5.0275870290092044  9.3641223296045126
  4.3540015465430173  2.5138221631723039 13.3375769532196351
 -4.3539940629505605 12.5689919005366484  1.4172130823742253
 -0.0000255970395528 10.0552270346997492  5.3906677059893795
 -4.3539940629505676 12.5689919005366342  9.3641223296044753
 -0.0000255970395724 10.0552270346997279 13.3375769532196191
  6.4638297770703357  1.2957122663334555  1.9728205377461274
  4.3540340100496469  4.9499909737791636  1.9728186767660243
  2.2442337004035675  1.2957096436474507  1.9728186767660394
 -2.1097951498952905  6.2456969258480415  5.9462751613612346
  0.0000006171254002  2.5914182184023407  5.9462733003811703
  2.1098009267714768  6.2456995485340547  5.9462733003811383
  6.4638297770703357  1.2957122663334422  9.9197297849763757
  4.3540340100496442  4.9499909737791494  9.9197279239962715
  2.2442337004035644  1.2957096436474389  9.9197279239962839
 -2.1097951498952838  6.2456969258480344 13.8931844085914786
  0.0000006171254006  2.5914182184023273 13.8931825476114135
  2.1098009267714803  6.2456995485340432 13.8931825476113922
  2.1098026334877522  8.8371171378608881  1.9728205377461165
  0.0000068664670623 12.4913958453065934  1.9728186767659655
 -2.1097934431790164  8.8371145151748802  1.9728186767660256
 -6.4638222934778780 13.7871017973754775  5.9462751613611831
 -4.3540265264571811 10.1328230899297740  5.9462733003811614
 -2.2442262168111098 13.7871044200614854  5.9462733003810841
  2.1098026334877420  8.8371171378608704  9.9197297849763686
  0.0000068664670571 12.4913958453065810  9.9197279239962146
 -2.1097934431790248  8.8371145151748713  9.9197279239962732
 -6.4638222934778726 13.7871017973754704 13.8931844085914271
 -4.3540265264571829 10.1328230899297633 13.8931825476114117
 -2.2442262168111058 13.7871044200614694 13.8931825476113371
 -0.0000008777953423  0.0000005067953656 -0.0727522053311269
  0.0000008777953523 -0.0000005067953999  3.9007024182839940
 -0.0000008777953456  0.0000005067953512  7.8741570418991174
  0.0000008777953526 -0.0000005067954111 11.8476116655142416
 -4.3540280213779265  7.5414053783227972 -0.0727522053311463
 -4.3540262657872315  7.5414043647320348  3.9007024182839767
 -4.3540280213779319  7.5414053783227821  7.8741570418991067
 -4.3540262657872377  7.5414043647320224 11.8476116655142256
