Cs I  Pb
 1.0000000000000000
     8.7981107917131993   -0.0000000000000002   -0.0000000000000000
     0.0000000000000213   17.5962215834506921   -0.0000000000000721
    -0.0000000000000003   -0.0000000000000568   12.9950704633670657
 Cs  I   Pb 
   8  24   8
Cartesian
  4.3990553958564345  0.0000000000005192  3.2487676158400589
 -0.0000000000000429  4.3990553958623835  3.2487676158399563
  4.3990553958565464  0.0000000000002183  9.7463028475245324
 -0.0000000000001347  4.3990553958621392  9.7463028475246656
  4.3990553958567746  8.7981107917251027  3.2487676158397938
  0.0000000000000236 13.1971661875882749  3.2487676158400678
  4.3990553958567800  8.7981107917252661  9.7463028475244045
 -0.0000000000000129 13.1971661875882180  9.7463028475245110
  0.0000000000001573 -0.0000000000001185  3.2487676158568570
  4.3990553958567622  4.3990553958625211  3.2487676158564569
  7.1978610848399507  2.7988056889811981  0.0000000000008208
  1.6002497068712569  5.9993051027462245  0.0000000000007868
  5.9993051027288686  7.1978610848423656  0.0000000000007857
  2.7988056889873145  1.6002497068841215  0.0000000000007520
  0.0000000000000282 -0.0000000000002743  9.7463028475045466
  4.3990553958569709  4.3990553958625140  9.7463028475064171
  7.1978610848398397  2.7988056889815951  6.4975352316843020
  1.6002497068698698  5.9993051027485622  6.4975352316843118
  5.9993051027286359  7.1978610848421267  6.4975352316845258
  2.7988056889873518  1.6002497068847683  6.4975352316843118
 -0.0000000000000072  8.7981107917253070  3.2487676158590242
  4.3990553958566077 13.1971661875881736  3.2487676158554586
  7.1978610848420637 11.5969164807038503  0.0000000000008094
  1.6002497068724513 14.7974158944705589  0.0000000000006144
  5.9993051027233912 15.9959718765633117  0.0000000000008547
  2.7988056889871280 10.3983604986114830  0.0000000000007784
 -0.0000000000000885  8.7981107917252910  9.7463028475017985
  4.3990553958567302 13.1971661875881416  9.7463028475063389
  7.1978610848455231 11.5969164807002052  6.4975352316842514
  1.6002497068703638 14.7974158944718983  6.4975352316844264
  5.9993051027239410 15.9959718765633774  6.4975352316842061
  2.7988056889863215 10.3983604986105025  6.4975352316844255
  0.0000000000017437  0.0000000000002592  0.0000000000014821
  4.3990553958571628  4.3990553958618799  0.0000000000015834
  0.0000000000018836 -0.0000000000005569  6.4975352316849477
  4.3990553958572169  4.3990553958608674  6.4975352316837673
 -0.0000000000009856  8.7981107917247243  0.0000000000016424
  4.3990553958563154 13.1971661875881132  0.0000000000007334
 -0.0000000000010015  8.7981107917255663  6.4975352316850179
  4.3990553958562524 13.1971661875891009  6.4975352316852755
