Cs I  Pb
 1.0000000000000000
     8.8617596883691885    0.0024481806019008    0.0026489961090818
     0.0049022292820202   17.6502524444232058   -0.0039586818155732
     0.0036670293626703   -0.0026574239930821   12.9972293219557322
 Cs  I   Pb 
   8  24   8
Cartesian
  4.6277050988379642  0.2602042243423779  3.2504056417355618
  0.2270703839801229  4.1442565859055778  3.2540211428947656
  4.6296696472719407  0.2589170489740017  9.7490214587875261
  0.2290243418974849  4.1428963412118778  9.7526364353276040
  4.6301721723986393  9.0853372167682167  3.2484275696455995
  0.2295395212838569 12.9693578056197989  3.2520435726300785
  4.6321113650859509  9.0840435519230383  9.7470404791579028
  0.2314592090997049 12.9680459691041321  9.7506567611649935
 -0.0329346341690844  0.0149177495617425  3.2658701126705516
  4.4023645142746046  4.3866946431950051  3.2663780525165933
  7.1646590346130772  2.7574155884141489  0.0153368756350710
  1.5740285358555428  6.0035939849630804  0.0084339565065827
  5.9984528584127927  7.2463760630942691  0.0025688116949161
  2.7260730975626482  1.6691890844219526  0.0127054370601268
 -0.0311067132764551  0.0134800928177504  9.7644857212175769
  4.4041806519778151  4.3854582338583796  9.7649925957745722
  7.1664914443425207  2.7560850213673329  6.5140428523989673
  1.5758622043182697  6.0022621659364175  6.5069874902413343
  6.0002856238088027  7.2450467994958245  6.5011330288656524
  2.7279058480924823  1.6678601817523471  6.5114022344984246
 -0.0304848779169859  8.8400229126440912  3.2638928905384752
  4.4048211333597491 13.2118251999404688  3.2643989036441803
  7.1671098114881167 11.5825416981528004  0.0133630969724805
  1.5764801431466569 14.8287193406921638  0.0064654229445762
  6.0009041856332033 16.0715026754821757  0.0005919382277196
  2.7285244595054472 10.4943161147760105  0.0107379813364804
 -0.0286531835704450  8.8386262745171376  9.7625069728453830
  4.4066251726931922 13.2105825726504165  9.7630137281403204
  7.1689408776989136 11.5812104865673753  6.5120584587039287
  1.5783136936217574 14.8273895149462174  6.5049997115533449
  6.0027371865282682 16.0701722587099205  6.4991512029147174
  2.7303562933631587 10.4929883939184379  6.5094105831620972
 -0.0510622176674328 -0.0330464057836443 -0.0411758406851624
  4.3919780613705299  4.4443246956101268 -0.0350226888820877
 -0.0492305584657796 -0.0343762978065068  6.4574380443441042
  4.3938127326652410  4.4429903548473426  6.4635935827303532
 -0.0486114864159191  8.7920785742000831 -0.0431584328424482
  4.3944288155033817 13.2694503830662853 -0.0369995618611371
 -0.0467783566009128  8.7907501935596706  6.4554607294210582
  4.3962644869107450 13.2681193610809327  6.4616153984326692
