Cs I  Pb
 1.0000000000000000
     9.1229107106819374    0.0000002578804605    0.0000001854781025
     0.0000004905225996   17.4497058494562438    0.0000012180075112
     0.0000002781219290    0.0000008283030229   12.6671436177634291
 Cs  I   Pb 
   8  24   8
Cartesian
  8.4678525247544858  8.9361960697053338  3.1661808649481613
  3.9063967914791982  4.1510803018533728  3.1673860288594655
  0.6550562315565954 -0.2113426630300719  9.4997555959796802
  5.2165090478762419  4.5737670618292956  9.5009583784443237
  8.4678552855065234 17.6610525227514223  3.1661830091684440
  3.9063949826886528 12.8759446126166139  3.1673939425058584
  0.6550607049896305  8.5135094934829230  9.4997529539680450
  5.2165196254969555 13.2986180358261450  9.5009665750115708
  4.6533888087114468  8.0263431948962101  3.1664582893735451
  0.0919324563064330  5.0609352006895127  3.1671169110699129
  4.4695215149920386  0.6985107325565205  9.5000540155129745
  9.0309709433963956  3.6639161772758881  9.5006521285551209
  7.2882502540018406  7.0051629287882804 12.1579118462449998
  2.7268011361215470  6.0821224945941568  6.8428057906914850
  1.8346596939831177  1.7196944414057711  5.8243430321320178
  6.3961170173495869  2.6427436984461523  0.5092327712372632
  1.8339044907480857  1.7211626247138263  0.5104912175576833
  6.3953651852565034  2.6412746299152183  5.8230746968164420
  7.2890037287869829  7.0037001155200480  6.8440697306499354
  2.7275493533380146  6.0835866075846470 12.1566485251012200
  4.6533912933295252 16.7511983972340168  3.1664657826927591
  0.0919413825499832 13.7857878205037103  3.1671083864799963
  4.4695207449585670  9.4233627963230457  9.5000599860887345
  9.0309734138092388 12.3887725379088209  9.5006645970333565
  7.2882498748068771 15.7300239775815331 12.1579111026840252
  2.7267806905924594 14.8069593278146598  6.8428049652734435
  1.8346598090654258 10.4445404992925130  5.8243389458790285
  6.3961235708417927 11.3675897896735183  0.5092287702057304
  1.8339152096432143 10.4459949768440143  0.5104999033279711
  6.3953697354142180 11.3661292025886649  5.8230773002788476
  7.2890102807299915 15.7285524057004462  6.8440739043568470
  2.7275397940584867 14.8084225385160018 12.1566487760589315
  4.5615226991758311  0.0004774881389199 -0.0014302867557950
  0.0000677241280264  4.3619371795282413  6.3350058408047953
  4.5613767521710837 -0.0004751914775100  6.3321212541599872
 -0.0000585944614432  4.3629033946327134  0.0014425461512919
  4.5615327282702482  8.7253420806249355 -0.0014383394041966
  0.0000810685862692 13.0868017429006187  6.3350097605445361
  4.5613860192854432  8.7243665805184243  6.3321386321455257
 -0.0000869180316047 13.0877646718859708  0.0014434837050177
