Cs I  Pb
 1.0000000000000000
    10.7225813626856770    0.0000000000000000   -0.0000000000000002
    -0.0000000000000016    9.9863691774217269   -0.0000000000000096
     0.0000000000000023   -0.0000000000000305   18.1677318760344910
 Cs  I   Pb 
   8  24   8
Cartesian
  4.5368822617270483  1.2482961471777130 12.2141985878702108
  0.8244084196157487  3.7448884415331505  3.1303326498529653
  6.1856991009585904  3.7448884415331474  5.9535332881642820
  9.8981729430699037  1.2482961471777088 15.0373992261815310
  4.5368822617270590  6.2414807358885742 12.2141985878702179
  0.8244084196157468  8.7380730302440188  3.1303326498529596
  6.1856991009585842  8.7380730302440153  5.9535332881642677
  9.8981729430698895  6.2414807358885742 15.0373992261815275
  1.7907312339755894  1.2482961471777352  0.0592038200226682
  3.5705594473672089  3.7448884415331483  9.1430697580399105
  8.9318501287100460  3.7448884415331305 18.1085280560118171
  7.1520219153184392  1.2482961471777116  9.0246621179945787
  3.1466311316408704  1.2482961471777083  5.2071678415485811
  2.2146595497019326  3.7448884415331332 14.2910337795658222
  7.5759502310447804  3.7448884415331429 12.9605640344859214
  8.5079218129837013  1.2482961471777294  3.8766980964686795
  0.2630096685493093  1.2482961471777161 11.0570681171783836
  5.0982810127934908  3.7448884415331616  1.9732021791611400
 10.4595716941363346  3.7448884415331420  7.1106637588561057
  5.6243003498921542  1.2482961471777003 16.1945296968733530
  1.7907312339755994  6.2414807358885973  0.0592038200226574
  3.5705594473672049  8.7380730302440135  9.1430697580399070
  8.9318501287100460  8.7380730302439993 18.1085280560118207
  7.1520219153184366  6.2414807358885724  9.0246621179945752
  3.1466311316408611  6.2414807358885787  5.2071678415485794
  2.2146595497019348  8.7380730302440046 14.2910337795658133
  7.5759502310447724  8.7380730302440099 12.9605640344859143
  8.5079218129837031  6.2414807358885964  3.8766980964686666
  0.2630096685493104  6.2414807358885742 11.0570681171783800
  5.0982810127934917  8.7380730302440295  1.9732021791611325
 10.4595716941363328  8.7380730302440170  7.1106637588560995
  5.6243003498921480  6.2414807358885698 16.1945296968733459
  1.7510424841230314  1.2482961471777163  8.0066108729248864
  3.6102481972197737  3.7448884415331345 17.0904768109421354
  8.9715388785626118  3.7448884415331452 10.1611210031096117
  7.1123331654658708  1.2482961471777307  1.0772550650923678
  1.7510424841230241  6.2414807358885804  8.0066108729248846
  3.6102481972197702  8.7380730302440028 17.0904768109421248
  8.9715388785626153  8.7380730302440135 10.1611210031095922
  7.1123331654658628  6.2414807358885902  1.0772550650923474
