Cs I  Pb
 1.0000000000000000
     8.7414463412768146   -0.0000030299216493    0.0000000000000022
    -8.7414515892550355   15.1406261648066174    0.0000000000000002
     0.0000000000000039    0.0000000000000015   16.3318434367392982
 Cs  I   Pb 
   8  24   8
Cartesian
 -0.0000038524224661  5.0468755925182682  1.1924223100605293
  4.3707243990717419  2.5234344599633456  5.2753831692453401
 -0.0000038524224460  5.0468755925182611  9.3583440284301815
  4.3707243990717792  2.5234344599633385 13.4413048876150061
 -4.3707296470499983 12.6171886749215822  1.1924223100605316
 -0.0000013955557673 10.0937475423666321  5.2753831692453588
 -4.3707296470499735 12.6171886749215432  9.3583440284301727
 -0.0000013955557529 10.0937475423666179 13.4413048876149954
  6.5382621643894430  1.2720059476788814  2.0974485177550277
  4.3707214744418845  5.0262922729735324  2.0974490347953751
  2.2031844886299101  1.2720080862615351  2.0974490347953783
 -2.1675416177402451  6.2983041048025097  6.1804093769398358
 -0.0000009277923931  2.5440177795080747  6.1804098939802010
  2.1675360580192904  6.2983019662202571  6.1804098939802214
  6.5382621643894980  1.2720059476790144 10.2633702361246577
  4.3707214744417620  5.0262922729735413 10.2633707531650415
  2.2031844886299696  1.2720080862614209 10.2633707531650504
 -2.1675416177402762  6.2983041048024653 14.3463310953094947
 -0.0000009277923044  2.5440177795080761 14.3463316123498519
  2.1675360580192393  6.2983019662203414 14.3463316123498590
  2.1675363697619243  8.8423190300822014  2.0974485177550224
 -0.0000043201856051 12.5966053553768411  2.0974490347953818
 -2.1675413059976245  8.8423211686648475  2.0974490347953885
 -6.5382674123677305 13.8686171872058566  6.1804093769398394
 -4.3707267224198869 10.1143308619113732  6.1804098939802001
 -2.2031897366081945 13.8686150486235462  6.1804098939802170
  2.1675363697620185  8.8423190300823382 10.2633702361246595
 -0.0000043201857481 12.5966053553768678 10.2633707531650451
 -2.1675413059975295  8.8423211686647019 10.2633707531650380
 -6.5382674123678148 13.8686171872057731 14.3463310953094911
 -4.3707267224197945 10.1143308619113697 14.3463316123498519
 -2.2031897366082767 13.8686150486236439 14.3463316123498679
  0.0000001354654602 -0.0000000782110397 -0.0216880613362867
 -0.0000001354654589  0.0000000782109926  4.0612727978485488
  0.0000001354654677 -0.0000000782110616  8.1442336570333698
 -0.0000001354654717  0.0000000782109747 12.2271945162181925
 -4.3707256591620389  7.5703130041922959 -0.0216880613362785
 -4.3707259300929788  7.5703131606143081  4.0612727978485559
 -4.3707256591620336  7.5703130041922488  8.1442336570333485
 -4.3707259300929602  7.5703131606143108 12.2271945162181819
