Cs I  Pb
 1.0000000000000000
    10.8498541798389745   -0.0000000209998311    0.0000000291826739
    -0.0000000198111577    9.7904235709537843   -0.0000000306607579
     0.0000000511695891   -0.0000000564803271   18.2930707796460759
 Cs  I   Pb 
   8  24   8
Cartesian
  4.5657259885291337  1.2238026254683361 12.3153030258145844
  0.8592009249709454  3.6714087826168527  3.1687640503969043
  6.2841279793493934  3.6714087220148195  5.9777698191062738
  9.9906526449481508  1.2238025622711377 15.1243056151595887
  4.5657254606968332  6.1190146156879415 12.3153021869886938
  0.8592011560518180  8.5666204981293497  3.1687636996688870
  6.2841278150718267  8.5666204529877952  5.9777698773864136
  9.9906529736502101  6.1190146141688571 15.1243056725721967
  1.8106220248437368  1.2238032014944995  0.0743534496526510
  3.6143021326691223  3.6714086071040706  9.2208851343981735
  9.0392294889326248  3.6714089413115878 18.2187209749094627
  7.2355493033898952  1.2238031857941511  9.0721818517556994
  3.2081085539437977  1.2238029992968054  5.2741061587995253
  2.2168207125504171  3.6714088776423539 14.4206441309863944
  7.6417476859358375  3.6714086191694859 13.0189594948760234
  8.6330368617216209  1.2238029188252659  3.8724323265079117
  0.2745238158280304  1.2238031252937813 11.1359461775771109
  5.1504039617062549  3.6714086666717582  1.9894156505448295
 10.5753296024253167  3.6714087655172642  7.1571201612891224
  5.6994511411602584  1.2238031824707589 16.3036593111201675
  1.8106216668662793  6.1190142601851436  0.0743532441946342
  3.6143019763619622  8.5666206863847840  9.2208847460756331
  9.0392294858039310  8.5666206685185919 18.2187205834100574
  7.2355500318447561  6.1190151265016270  9.0721818605535880
  3.2081084572619618  6.1190148647829394  5.2741063508397552
  2.2168201104646581  8.5666204329578850 14.4206439910275339
  7.6417486200985971  8.5666208166553925 13.0189580637852984
  8.6330368113898857  6.1190145723266189  3.8724323656393778
  0.2745241689958430  6.1190143646867794 11.1359468153772685
  5.1504023907378054  8.5666204525209242  1.9894152667364442
 10.5753290881279742  8.5666203449888219  7.1571198253371113
  5.6994507186448651  6.1190144609071266 16.3036593692687397
  1.7667959930482648  1.2238042475210242  8.0602312877660243
  3.6581338923480859  3.6714089114400563 17.2067561389410528
  9.0830601112224034  3.6714090814353457 10.2328511250347010
  7.1917207697892671  1.2238035904910074  1.0863016633570699
  1.7667958697705546  6.1190140601288299  8.0602316882473488
  3.6581338530434153  8.5666201720537813 17.2067575774130113
  9.0830586796875394  8.5666201024847641 10.2328525086111028
  7.1917211268965016  6.1190138427230245  1.0863014485895146
