Cs I  Pb
 1.0000000000000000
     8.7665335092668020    0.0000000185290245    0.0000004980155364
    -8.7665334774481369   15.1840822666075876   -0.0000005953737176
     0.0000009154100028    0.0000000369417390   16.3123197391108441
 Cs  I   Pb 
   8  24   8
Cartesian
  0.0000446199883410  5.0613356280242607  1.1967810503860232
  4.3832247506042448  2.5307019150337604  5.2748623999083026
  0.0000479665098083  5.0613363591667984  9.3529382931695011
  4.3832131707989248  2.5307176991078189 13.4310302544849538
 -4.3832218849792177 12.6533817744795094  1.1967765166488848
 -0.0000482725678049 10.1227566889134639  5.2748653737893916
 -4.3832225800083044 12.6533725201668723  9.3529295105451045
 -0.0000431944134669 10.1227533377147587 13.4310304449292381
  6.5695298411990892  1.2684435473676194  2.0741304945485655
  4.3832058349164447  5.0551648744217683  2.0740943820164435
  2.1969680870628463  1.2684874412108180  2.0740952517167117
 -2.1862578140695574  6.3235980469420499  6.1522103863766100
  0.0000582992489152  2.5368745092726486  6.1521721532764335
  2.1862985192565101  6.3235497743187699  6.1521794045097229
  6.5695322167248396  1.2684425440689155 10.2302798861118589
  4.3832032551568840  5.0551778417780859 10.2302385043732613
  2.1969613735236213  1.2684835509172834 10.2302595759701198
 -2.1862615136635384  6.3235974089606319 14.3083627698643436
  0.0000604957418362  2.5368650257843317 14.3083449517807342
  2.1863149652267837  6.3235572313969843 14.3083419677761974
  2.1862585567485877  8.8604887318855905  2.0741238422207111
 -0.0000644830926720 12.6472087856626292  2.0740849766393858
 -2.1862936623062379  8.8605286289046621  2.0741198320793828
 -6.5695242249424668 13.9156419205199544  6.1521986886447326
 -4.3832113666316985 10.1289157842011210  6.1521608035389299
 -2.1969589603420103 13.9155965223030176  6.1521537980777543
  2.1862584849943776  8.8604885841840666 10.2302914421508273
 -0.0000643180752324 12.6472163435005278 10.2302430184940292
 -2.1863014520231454  8.8605267121797695 10.2302494119503447
 -6.5695274118469849 13.9156474502386871 14.3083616056174474
 -4.3832054748234555 10.1289057877753290 14.3083448329644600
 -2.1969636871976648 13.9155943991379818 14.3083447684540239
 -0.0000035275846647  0.0000043830878270  0.0350827229401111
  0.0000032777256532 -0.0000061562996515  4.1131508415853304
  0.0000042039818706  0.0000004147258688  8.1912210779596677
  0.0000064722398761 -0.0000101077693312 12.2692976780659144
 -4.3832735795358175  7.5920488369182246  0.0350676046607278
 -4.3832660775037962  7.5920148489956087  4.1131323545070879
 -4.3832679481392987  7.5920490945436638  8.1912168017289098
 -4.3832622159331613  7.5920223424471747 12.2692968348225087
