Cs I  Pb
 1.0000000000000000
     9.1257077629887409    0.0000000000000001    0.0000000000000006
    -0.0000000000000002   17.4708872744901775   -0.0000000000000616
     0.0000000000000019   -0.0000000000000558   12.6540322039646345
 Cs  I   Pb 
   8  24   8
Cartesian
  8.4757935640529531  8.9528587531600294  3.1635080509908899
  3.9129396825585863  4.1503067027077813  3.1635080509910707
  0.6499141989357752 -0.2174151159149391  9.4905241529733999
  5.2127680804301599  4.5851369345373660  9.4905241529735811
  8.4757935640529478 17.6883023904048891  3.1635080509911506
  3.9129396825585836 12.8857503399528230  3.1635080509910249
  0.6499141989357872  8.5180285213303968  9.4905241529736752
  5.2127680804301839 13.3205805717824148  9.4905241529734479
  4.6687859764219226  8.0181706496929372  3.1635080509923608
  0.1059320949275504  5.0849948061745920  3.1635080509916915
  4.4569217865668209  0.7172729875521374  9.4905241529738564
  9.0197756680611931  3.6504488310704564  9.4905241529729398
  7.2702751588672934  6.9951783776064165 12.1305335484526093
  2.7074212773726787  6.1079870782608916  6.8505147574942340
  1.8554326041214628  1.7402652596386505  5.8035174464703436
  6.4182864856159219  2.6274565589841110  0.5234986555119850
  1.8554326041219995  1.7402652596380928  0.5234986555119837
  6.4182864856165196  2.6274565589846359  5.8035174464703516
  7.2702751588668129  6.9951783776068792  6.8505147574942198
  2.7074212773722541  6.1079870782604164 12.1305335484526040
  4.6687859764219182 16.7536142869381734  3.1635080509906981
  0.1059320949275561 13.8204384434198158  3.1635080509913829
  4.4569217865668227  9.4527166247971017  9.4905241529722026
  9.0197756680611949 12.3858924683155003  9.4905241529731086
  7.2702751588665180 15.7306220148523366 12.1305335484526129
  2.7074212773725663 14.8434307155059653  6.8505147574941834
  1.8554326041222871 10.4757088968828889  5.8035174464703436
  6.4182864856162931 11.3629001962294875  0.5234986555119223
  1.8554326041216584 10.4757088968834999  0.5234986555119402
  6.4182864856157229 11.3629001962288658  5.8035174464703516
  7.2702751588669017 15.7306220148519316  6.8505147574941807
  2.7074212773730144 14.8434307155063507 12.1305335484526111
  4.5628538814944486 -0.0000000000003106 -0.0000000000000567
 -0.0000000000001030  4.3677218186220435  6.3270161019821085
  4.5628538814944672 -0.0000000000005183  6.3270161019824087
  0.0000000000000661  4.3677218186233162 -0.0000000000001615
  4.5628538814943758  8.7354436372454529 -0.0000000000000403
  0.0000000000000481 13.1031654558682007  6.3270161019824505
  4.5628538814943438  8.7354436372455968  6.3270161019822346
 -0.0000000000001297 13.1031654558669945  0.0000000000000864
