Cs I  Pb
 1.0000000000000000
    10.9961196841387459   -0.0000000000000622   -0.0000000000418618
    -0.0000000000000433    9.7929990639985700    0.0000000000034859
    -0.0000000000721331    0.0000000000054916   18.0791039592322456
 Cs  I   Pb 
   8  24   8
Cartesian
  4.6552474477362127  1.2241248829962974 12.2118941160242152
  0.8428123938508165  3.6723746490095239  3.1723421345734995
  6.3408722364908288  3.6723746490015978  5.8672098453839956
 10.1533072904458965  1.2241248829954228 14.9067618224139746
  4.6552474477403107  6.1206244150111546 12.2118941160419272
  0.8428123938517526  8.5688741809916049  3.1723421345697593
  6.3408722364897390  8.5688741809992450  5.8672098453875119
 10.1533072904460777  6.1206244150117506 14.9067618224234764
  1.7804075212767161  1.2241248829900306  0.0782176365566653
  3.7176523190387769  3.6723746489872737  9.1177696122813501
  9.2157121602169365  3.6723746489699240 18.0008863268054036
  7.2784673625335872  1.2241248829962472  8.9613343427978975
  3.2338247092340509  1.2241248829952220  5.1794805018007066
  2.2642351364479025  3.6723746489944280 14.2190324895140972
  7.7622949771203738  3.6723746489983560 12.8996234514845671
  8.7318845499342910  1.2241248829945606  3.8600714756460794
  0.2096534796088165  1.2241248829942555 10.9822727099375630
  5.2884063614586045  3.6723746489667413  1.9427207361006329
 10.7864662041182289  3.6723746490002087  7.0968312436376459
  5.7077133223461134  1.2241248830074034 16.1363832287502866
  1.7804075213416000  6.1206244150028493  0.0782176365351374
  3.7176523190624162  8.5688741810093170  9.1177696122919958
  9.2157121602409102  8.5688741810447233 18.0008863267990726
  7.2784673625429450  6.1206244150148290  8.9613343428005692
  3.2338247092402397  6.1206244150076783  5.1794805017880172
  2.2642351364911031  8.5688741810133990 14.2190324895955875
  7.7622949771866825  8.5688741810068123 12.8996234513647892
  8.7318845499964191  6.1206244150059348  3.8600714757654795
  0.2096534796006048  6.1206244150046816 10.9822727099444819
  5.2884063614339771  8.5688741810267732  1.9427207361155086
 10.7864662040813926  8.5688741810098907  7.0968312436263519
  5.7077133222709735  6.1206244150081375 16.1363832287723135
  1.8349104208269584  1.2241248830504934  7.9808835704792411
  3.6631494184854612  3.6723746491078941 17.0204355342213454
  9.1612092636013926  3.6723746490099058 10.0982204026469251
  7.3329702659133407  1.2241248830375171  1.0586684108536564
  1.8349104208189544  6.1206244149548104  7.9808835704859176
  3.6631494184303990  8.5688741809022542 17.0204355341269675
  9.1612092635250360  8.5688741809927613 10.0982204027914797
  7.3329702658428557  6.1206244149605427  1.0586684107302879
