Cs I  Pb
 1.0000000000000000
     9.3826506925894222   -0.0000003264245706    0.0000006394994419
     0.0000000745513761   16.7858661142558852   -0.0000026496729804
     0.0000007645119348   -0.0000017693545943   12.7959381009692379
 Cs  I   Pb 
   8  24   8
Cartesian
  8.4940059579093408  8.8805784071045757  3.1989862720200861
  3.8026888891003279  3.7087663043104024  3.1989852464538129
  0.8885949600741997 -0.4877107632054356  9.5969386628748516
  5.5799191990755315  4.6841653587555498  9.5969381487556298
  8.4940189864726303 17.2735805306099230  3.1989860598220075
  3.8026837580954256 12.1017341309692448  3.1989849156986541
  0.8886128188240396  7.9052899000601995  9.5969519288271474
  5.5799420291057986 13.0770498772953374  9.5969714579244556
  4.7151812696603610  7.7855530961586430  3.1989754495562592
  0.0238800664475123  4.8039169657843690  3.1989998627893974
  4.6674651970556162  0.6074094466899053  9.5969618026206831
  9.3587836768349497  3.5890544307567835  9.5969638096758292
  7.5776745170385027  6.8905439733025808 12.3778222397273669
  2.8863784736149238  5.6988632498563199  6.8160374552961667
  1.8049264520587613  1.5023542827189607  5.9798788054137031
  6.4962709982391997  2.6940861931224980  0.4180868914527139
  1.8049612270790218  1.5023863441892715  0.4180750680099333
  6.4962628462229022  2.6941073286263948  5.9798770075638110
  7.5777222027889790  6.8905799359776063  6.8160808293002306
  2.8863711105054675  5.6988791894763393 12.3778712622233709
  4.7152021215898765 16.1784190768580167  3.1989830189647046
  0.0238490523640253 13.1967794984942888  3.1989790102127902
  4.6674435963352980  9.0003269858205623  9.5969499557829820
  9.3587619664695509 11.9819873239131844  9.5969478560892227
  7.5777172980124314 15.2834722072953841 12.3778740959166385
  2.8863866236031832 14.0917609448561088  6.8160749030397216
  1.8049652306172870  9.8953396902901911  5.9798591879587164
  6.4962837100663045 11.0870163312132455  0.4180922986074430
  1.8049357286696834  9.8953231216094419  0.4181093808004939
  6.4962909808768279 11.0870055951643298  5.9798691158970936
  7.5776803331548415 15.2834478411106947  6.8160393867760769
  2.8863799283988918 14.0917647383918325 12.3778197150513467
  4.6913432728822766  0.0000149093604020 -0.0000168522822286
  0.0000358286279631  4.1964853550005285  6.3979639413124634
  4.6913487868332080 -0.0000086239155792  6.3979729570516692
  0.0000359574623820  4.1964543943789296 -0.0000085150547865
  4.6913363148944409  8.3929524380548060  0.0000052131416713
  0.0000265860103690 12.5893784145586558  6.3979631049874133
  4.6913472518435748  8.3929361980661064  6.3979824516350465
  0.0000116671417670 12.5893736368388840  0.0000138172084309
