Cs I  Pb
 1.0000000000000000
    10.9727883492890648    0.0569534281113007    3.5449687420267653
   -10.8432370956745476   16.1960625590322564   -3.9449237683696343
     4.9868272450073432   -1.0786681055927096   15.4956324552708562
 Cs  I   Pb 
   8  24   8
Cartesian
  1.2336759819737511  5.4724306764825243  3.9149116460664564
  6.8166423625526829  2.1466924219279462  5.2209798861641330
  3.7271004258904679  4.9330918019885743 11.6627296858241998
  9.3100440271678480  1.6073697057661298 12.9687990034839409
 -4.1656275813043564 12.7728808014315831  2.1280144122876017
  1.1968988257656554 11.0087746240252589  2.8754593677587970
 -1.6722462309578994 12.2335422466910710  9.8758179717562840
  3.6903210856871294 10.4694464884276268 10.6232772595111626
 10.6361283471819910  2.4295503857265293  5.3040431376679980
  5.1015399319224475  5.5083243186169124  4.0291830842222502
  3.0910384501775634  0.1404666492348900  0.4095795194411215
 -2.5890692857853042  5.2596287726355913  3.7241721231820204
  2.9625954060767055  2.0819606606494085  4.9824048478186915
  4.8685761013269850  7.4092375633897056  8.6515618107018195
 13.1295429271395214  1.8902134744775845 13.0518625019974657
  7.5949459830464772  4.9689970553970575 11.7769958635108853
  5.5844527833411197 -0.3988787584730965  8.1573984186885067
 -0.0956592095401998  4.7202988218798687 11.4719806384334220
  5.4560007977835170  1.5426376306314855 12.7302147766624341
  7.3620011230273672  6.8699167505589047 16.3993843100482906
  4.6142610592321374  9.8376865163471638  4.5271289044515477
 -0.5452479285045871 14.0970148565448898  1.1813218153170544
 -2.4618592165375253  7.9644631379303972 -0.3964318574211311
 -7.6120760313966196 13.9193833816925814  0.6048060270727103
 -2.4225539748937290  9.7883094512526494  3.9540945625041291
 -0.4251076022959750 16.0112714722951957  5.5385023375633322
  7.1076605642766140  9.2983563027401104 12.2749397614505256
  1.9481733498213085 13.5576711434918540  8.9291446718167951
  0.0315669729678740  7.4251180086359376  7.3513922369513836
 -5.1186646634712520 13.3800504953976951  8.3526210272214101
  0.0708542405910251  9.2489726840329229 11.7019006066003222
  2.0683116155703005 15.4719365221437108 13.2863247729817271
 -0.0133323505176241  0.2029959697011511 -0.6621203015073133
  1.2569294516053122 -0.0269067544493073  3.2221909906578117
  2.4800798681410678 -0.3363359083879459  7.0856956937002158
  3.7503458490897850 -0.5662397116678531 10.9700074533776881
 -5.4961149938692664  7.9191423150360052 -1.5822487289669089
 -4.2750932898902523  7.6086099849273285  2.2854926203010493
 -3.0027088440067611  7.3798056815611925  6.1655642309166661
 -1.7816770711075987  7.0692734983697818 10.0333114562434780
