Cs I  Pb
 1.0000000000000000
     9.0424183945760515   -0.0000000168773629    0.0000000516508369
    -0.0000000313169152   17.6845298947850083   -0.0000000302258310
     0.0000000738811677   -0.0000000222273175   12.6012719966547646
 Cs  I   Pb 
   8  24   8
Cartesian
  8.5008927165863213  9.0190554931162268  3.1503180498205068
  3.9796839083197000  4.2443430427938855  3.1503182997859911
  0.5415254498802622 -0.1767909068453211  9.4509539965199103
  5.0627347408893639  4.5979216508513581  9.4509538982439043
  8.5008932925743323 17.8613182827697869  3.1503179783593569
  3.9796834205772051 13.0866080162914233  3.1503179647762423
  0.5415255918179297  8.6654768470413206  9.4509538386294611
  5.0627350639179811 13.4401867351483446  9.4509540998651644
  4.6363880259537593  8.1131903024931535  3.1503183830695209
  0.1151789125813275  5.1502060926168154  3.1503174607688802
  4.4060306331628434  0.7290744539911324  9.4509537470953155
  8.9272394245345623  3.6920584185077479  9.4509544926356384
  7.1725353722149716  7.0302508424041541 12.0972585218611481
  2.6513228706114402  6.2331424093314194  6.8046499511937508
  1.8698834608490058  1.8120136024022391  5.7966220653277691
  6.3910953601577045  2.6091223515075144  0.5040141454915571
  1.8698833970579134  1.8120137555919262  0.5040138933781235
  6.3910956592994550  2.6091223352857940  5.7966223583379550
  7.1725352396586226  7.0302510386184212  6.8046496580279117
  2.6513230849344156  6.2331425443348669 12.0972583332666126
  4.6363878128599794 16.9554563613227529  3.1503179459281614
  0.1151788853353034 13.9924719700845639  3.1503174163457195
  4.4060304157961818  9.5713386362502479  9.4509539372042219
  8.9272393789190438 12.5343227629208247  9.4509545300849371
  7.1725317897050491 15.8725198894758570 12.0972582172480330
  2.6513260548850837 15.0754115600375851  6.8046498178780643
  1.8698861877594311 10.6542754763355880  5.7966223795464034
  6.3910924895963497 11.4513834700734929  0.5040138992172764
  1.8698861719440687 10.6542753057376878  0.5040137122333911
  6.3910927966432265 11.4513835735588536  5.7966222258971198
  7.1725319639294272 15.8725197872642152  6.8046496947966197
  2.6513261708039639 15.0754116306191133 12.0972581069099636
  4.5212096381535476 -0.0000048339848786 -0.0000003335843164
 -0.0000003780543399  4.4211328911733210  6.3006355715810303
  4.5212097804503308 -0.0000046220020002  6.3006366261578224
  0.0000000006252945  4.4211328206475384  0.0000002501316116
  4.5212087056131889  8.8422692203096158  0.0000003616431256
 -0.0000000738978721 13.2633969650510739  6.3006359039534567
  4.5212090110652268  8.8422690645188933  6.3006358196963470
  0.0000000918487203 13.2633974324789250  0.0000001140540169
