Cs I  Pb
 1.0000000000000000
    12.2422412439212422    0.0249624626553655   -0.0186757871945001
     0.0250142232255856   12.2355470369846113   -0.0076425640364740
    -0.0187097896922016   -0.0076223698675075   12.2919957558136854
 Cs  I   Pb 
   8  24   8
Cartesian
  3.0754660396931310  3.0691041421733436  2.9827154645578582
  3.0660966482837049  3.0652796763155439  9.1287203857556261
  3.0879572711058980  9.1868683802526174  2.9788941368800663
  3.0786058668937537  9.1830636085611719  9.1248975030597670
  9.1965732583923625  3.0815771873415878  2.9733807407262738
  9.1872173494801928  3.0777619176609896  9.1193806575788567
  9.2090767468323431  9.1993471825003361  2.9695550699275857
  9.1997170988637258  9.1955370893828903  9.1155619238791648
 -0.0011997843551729  0.0038370649242556  3.1811808967496940
  0.0420259557535055  3.0551451811736809 -0.0965761739490478
  3.0400697365324070  0.0018855074582736 -0.0965007345894278
 -0.0105428446284378  0.0000482855772487  9.3271695417441638
  0.0326695449614599  3.0513379911491518  6.0494088209234427
  3.0307166641616550 -0.0019273895188287  6.0494820619717640
  0.0113277535667516  6.1216293093090073  3.1773509419148351
  0.0545252633997115  9.1729172046778160 -0.1004086189958341
  3.0525759193989792  6.1196543447555856 -0.1003277627599030
  0.0019635670673360  6.1178151253937934  9.3233562565463064
  0.0451711938642896  9.1691092242455650  6.0455974026075605
  3.0432203175570165  6.1158445959085421  6.0456670610498220
  6.1199337237153699  0.0163469036288811  3.1718430214274256
  6.1631447181687919  3.0676323909345937 -0.1059201626015771
  9.1611910623050541  0.0143638758747453 -0.1058599711372550
  6.1105849324817321  0.0125267885966383  9.3178335233219638
  6.1537910705688406  3.0638202729974338  6.0400769329250998
  9.1518418288543995  0.0105527029493533  6.0401570970341139
  6.1324450437948315  6.1341115499068257  3.1680126164236886
  6.1756468406736138  9.1854022571423943 -0.1097443483006371
  9.1736983899231994  6.1321320888108906 -0.1096695514371215
  6.1230860588296432  6.1302944184327632  9.3140208916771687
  6.1662957509422975  9.1815915037888534  6.0362524593984608
  9.1643466183350952  6.1283212171736485  6.0363315891161768
 -0.0320881080861720 -0.0035391729401455  0.1620349738888474
 -0.0414385894242652 -0.0073438786605185  6.3080370210003638
 -0.0195832066603548  6.1142355848278669  0.1582174155183367
 -0.0289351112354050  6.1104252747444372  6.3042096657753532
  6.0890347696707519  0.0089465152095754  0.1526974240435679
  6.0796833690853074  0.0051363339471600  6.2986971391677358
  6.1015412519007963  6.1267186807831946  0.1488784695247761
  6.0921855361023560  6.1229082940013626  6.2948718160675874
