Cs I  Pb
 1.0000000000000000
    12.8318320254507032    0.0000000033229213    0.0000000020436397
     0.0000000033227899   12.8318320185463328   -0.0000000009609362
     0.0000000020436600   -0.0000000009607726   12.8318321082948081
 Cs  I   Pb 
   8  24   8
Cartesian
  3.2079580270261241  3.2079579702629646  3.2079579977275938
  3.2079579562936500  3.2079580057673849  9.6238741498252178
  3.2079579756859427  9.6238739731090988  3.2079580584309726
  3.2079579071464006  9.6238740376743390  9.6238739903346637
  9.6238739730514347  3.2079580129897534  3.2079580798712470
  9.6238740896900250  3.2079579734834254  9.6238740219563450
  9.6238740459365779  9.6238741016005367  3.2079580045345701
  9.6238741325319381  9.6238741588284142  9.6238741094540643
 -0.0000000336839686 -0.0000000326035254  3.2079601747078583
 -0.0000001820725321  3.2079599384808182  0.0000001677096678
  3.2079601777865436  0.0000002392988830  0.0000001895016125
 -0.0000001146142218 -0.0000000608121768  9.6238707999509963
 -0.0000000732560193  3.2079585825927053  6.4159160025162905
  3.2079588051628769  0.0000001462495863  6.4159160366181238
 -0.0000000514680036  6.4159160718671622  3.2079604064914964
 -0.0000001563152725  9.6238709422997317  0.0000000541279970
  3.2079585898158771  6.4159158142518216  0.0000002286858311
 -0.0000000583366655  6.4159163477936509  9.6238706816492225
 -0.0000000398534326  9.6238724413875172  6.4159161945903094
  3.2079599275006290  6.4159160118518539  6.4159159125591181
  6.4159160587154807 -0.0000000574289961  3.2079601594226119
  6.4159159457521104  3.2079585412562204  0.0000001968899874
  9.6238710490528518  0.0000000605750080  0.0000000785731376
  6.4159163264217760 -0.0000001070442670  9.6238707323355825
  6.4159160593078397  3.2079598777200022  6.4159160269917486
  9.6238724573511885  0.0000000828144457  6.4159161693963798
  6.4159160354927129  6.4159160163360935  3.2079585342785060
  6.4159163184970378  9.6238723197208564  0.0000000637595859
  9.6238722649097532  6.4159159474325458  0.0000001187575923
  6.4159163323175585  6.4159162530763014  9.6238726056057935
  6.4159162732922521  9.6238709571674033  6.4159161083797906
  9.6238709628664783  6.4159161023306748  6.4159161124492714
  0.0000002056136888  0.0000000978714838 -0.0000000053031899
  0.0000001587979644  0.0000001596511529  6.4159168705137626
  0.0000002849686296  6.4159166905908798  0.0000002299138311
  0.0000002949997310  6.4159166459489620  6.4159166438860131
  6.4159165288796096  0.0000001267501449  0.0000000960270311
  6.4159165102395432  0.0000001423715625  6.4159167905667376
  6.4159167142085289  6.4159168949835275  0.0000000509843972
  6.4159167882997998  6.4159168591495837  6.4159165823986646
