Cs I  Pb
 1.0000000000000000
    10.8780082333474635    0.0000000000000001    0.0000000000000105
    -0.0000000000000001    9.7672207319564919    0.0000000000000348
     0.0000000000000187    0.0000000000000678   18.1993598152804488
 Cs  I   Pb 
   8  24   8
Cartesian
  4.6136177949473973  1.2209025914946185 12.2448357115481627
  0.8253863217266155  3.6627077744837049  3.1451558039167620
  6.2643904384002678  3.6627077744837120  5.9545241037234184
 10.0526219116210509  1.2209025914946268 15.0542040113725815
  4.6136177949473982  6.1045129574728643 12.2448357115481787
  0.8253863217266193  8.5463181404619561  3.1451558039167744
  6.2643904384002687  8.5463181404619597  5.9545241037234442
 10.0526219116210456  6.1045129574728660 15.0542040113726028
  1.7873978470752931  1.2209025914945648  0.0428541653047283
  3.6516062696110940  3.6627077744837298  9.1425340729651854
  9.0906103862850465  3.6627077744837671 18.1565056499554558
  7.2264019637492440  1.2209025914946039  9.0568257423355671
  3.1850634691993194  1.2209025914945941  5.2352487989879393
  2.2539406474585526  3.6627077744837520 14.3349287065909881
  7.6929447641325694  3.6627077744837333 12.9641110163292392
  8.6240675858733233  1.2209025914945826  3.8644311086527465
  0.2698875673364995  1.2209025914945926 11.0892998028165533
  5.1691165493442508  3.6627077744836876  1.9896198951490478
 10.6081206660178804  3.6627077744837391  7.1100600124911821
  5.7088916840101325  1.2209025914946461 16.2097399201041377
  1.7873978470752934  6.1045129574728172  0.0428541653047434
  3.6516062696110909  8.5463181404619704  9.1425340729652049
  9.0906103862850500  8.5463181404620059 18.1565056499554700
  7.2264019637492387  6.1045129574728589  9.0568257423355814
  3.1850634691993109  6.1045129574728403  5.2352487989879632
  2.2539406474585553  8.5463181404619988 14.3349287065910165
  7.6929447641325686  8.5463181404619863 12.9641110163292623
  8.6240675858733269  6.1045129574728261  3.8644311086527705
  0.2698875673365031  6.1045129574728474 11.0892998028165746
  5.1691165493442499  8.5463181404619259  1.9896198951490753
 10.6081206660178768  8.5463181404619757  7.1100600124912052
  5.7088916840101280  6.1045129574728927 16.2097399201041661
  1.7693210194693760  1.2209025914946039  8.0183564762291386
  3.6696830972003198  3.6627077744837688 17.1180363839447836
  9.1086872138734503  3.6627077744837178 10.1810033389762964
  7.2083251361425074  1.2209025914945748  1.0813234314107363
  1.7693210194693840  6.1045129574728527  8.0183564762291493
  3.6696830972003198  8.5463181404620059 17.1180363839447907
  9.1086872138734520  8.5463181404619828 10.1810033389762964
  7.2083251361425038  6.1045129574728083  1.0813234314107512
