Cs I  Pb
 1.0000000000000000
     8.6384040629213690   -0.0000257731885710   -0.0000000000001565
    -8.6384487033935518   14.9621289602219392   -0.0000000000007297
    -0.0000000000002887   -0.0000000000010455   15.5811651176070214
 Cs  I   Pb 
   8  24   8
Cartesian
  0.0002121030310651  4.9872366802109518  1.8129861666666549
  4.3189676082091752  2.4938020267153131  5.7082774460739891
  0.0002121030283813  4.9872366802114838  9.6035687254559736
  4.3189676082081201  2.4938020267033294 13.4988600048496075
 -4.3190122486584981 12.4683011603445948  1.8129861666600815
 -0.0002567434946432  9.9748665067789055  5.7082774460809125
 -4.3190122486570193 12.4683011603429090  9.6035687254602227
 -0.0002567434964886  9.9748665067903985 13.4988600048433671
  6.3860969805591559  1.3003443271573989  1.8134240922018232
  4.3197832514457115  4.8805654547194433  1.8137114893283506
  2.2523776679077505  1.2997139447068471  1.8137114893510233
 -2.0669172693181563  6.1806943797498963  5.7087153716113175
 -0.0006035402134070  2.6004732521030101  5.7090027687226108
  2.0668020433727956  6.1813247622280922  5.7090027687600200
  6.3860969805563634  1.3003443271629131  9.6040066510190254
  4.3197832514434138  4.8805654546858426  9.6042940481606269
  2.2523776679257090  1.2997139447209949  9.6042940481586481
 -2.0669172693171771  6.1806943797509613 13.4992979304762510
 -0.0006035402131578  2.6004732520777303 13.4995853276191049
  2.0668020433305050  6.1813247622061516 13.4995853276189326
  2.0668726288284169  8.7814088073116903  1.8134240921838456
  0.0005588997506505 12.3616299348137098  1.8137114893383535
 -2.0668466837087518  8.7807784248974965  1.8137114893263342
 -6.3861416208566126 13.6617588597540660  5.7087153715855568
 -4.3198278919156934 10.0815377323626780  5.7090027687566458
 -2.2524223083865049 13.6623892422927948  5.7090027687318150
  2.0668726288502683  8.7814088072950671  9.6040066510094046
  0.0005588997527107 12.3616299348256504  9.6042940481717949
 -2.0668466837573276  8.7807784248654421  9.6042940481547241
 -6.3861416209116291 13.6617588597844826 13.4992979304680745
 -4.3198278919157325 10.0815377323639357 13.4995853276016415
 -2.2524223083808077 13.6623892422931554 13.4995853276177957
 -0.0007719188938749  0.0004456676359758 -0.1337861196732990
  0.0007719187249716 -0.0004456673992507  3.7615051598185620
 -0.0007719189278072  0.0004456676362965  7.6567964392731138
  0.0007719187412181 -0.0004456674426730 11.5520877184840067
 -4.3199962705574908  7.4815101475695682 -0.1337861196953392
 -4.3184524329523679  7.4806188125131508  3.7615051599071778
 -4.3199962705746868  7.4815101476263033  7.6567964391412939
 -4.3184524329069038  7.4806188125788147 11.5520877185429907
