Cs I  Pb
 1.0000000000000000
    10.9014602327087022    0.0000016164919310    0.0000005990112528
     0.0000015294906374    9.7828065757733231    0.0000021909751220
     0.0000007798988412    0.0000039459661987   18.2487373801275119
 Cs  I   Pb 
   8  24   8
Cartesian
  4.6379071941083465  1.2224706044632161 12.2952642964896981
  0.8128274271925182  3.6689255554887774  3.1708912279653099
  6.2635529598479343  3.6681757943019244  5.9534753319742517
 10.0886421169919895  1.2232305591746508 15.0778450923180785
  4.6379034822168190  6.1138767175508226 12.2952633638314879
  0.8128156558951005  8.5603408984080609  3.1709002515881752
  6.2635609875945137  8.5595809859592311  5.9534807107244321
 10.0886471471097039  6.1146297751606236 15.0778411756405060
  1.7887835388252484  1.2257554797948154  0.0504171908351499
  3.6619537150954260  3.6656581899533704  9.1747795847964220
  9.1126894075934324  3.6714726370014779 18.1983254904610092
  7.2395045802476830  1.2199473969166867  9.0739627446884530
  3.1836454652938415  1.2232260775966646  5.2469877223089050
  2.2670843653503385  3.6681865796000621 14.3713498047112740
  7.7178140516212279  3.6689325354986400 13.0017545091711035
  8.6343631631007369  1.2224874218049195  3.8773788660262514
  0.2683795925048268  1.2206834118967422 11.1047250975503502
  5.1823603639253184  3.6707528411068577  1.9803679922031840
 10.6330814875418014  3.6663691884110583  7.1440093514040530
  5.7191046507613912  1.2250417579330488 16.2683784125590556
  1.7887712514575709  6.1171684534438606  0.0504194311636540
  3.6619493912763414  8.5570363794524216  9.1747853930396008
  9.1126780894006867  8.5628805059410453 18.1983169636249862
  7.2395086370517721  6.1113558621777706  9.0739500534196758
  3.1836373265245297  6.1146292237914919  5.2469890869117277
  2.2671071209121467  8.5595846933172517 14.3713713086568635
  7.7178274924054167  8.5603300017393753 13.0017525553407793
  8.6343732020141690  6.1138929487024294  3.8773826639241848
  0.2683768654255503  6.1120787045150928 11.1047378409341828
  5.1823587257905714  8.5621425550571217  1.9803699510856565
 10.6330877496835967  8.5577904329385959  7.1440054006031319
  5.7191042928925215  6.1164186229097366 16.2683602285343554
  1.7807193201380138  1.2208884334944532  8.0449702281761191
  3.6700153628583458  3.6704978281152738 17.1693324379362053
  9.1207549171087532  3.6665903406440354 10.2037737382819724
  7.2314433593081642  1.2248215166097873  1.0794077454173807
  1.7807041168554039  6.1122839269332925  8.0449639134885995
  3.6700208336384375  8.5618994826405324 17.1693330032836968
  9.1207539625923673  8.5580013653923075 10.2037719264693951
  7.2314373699125678  6.1162069936481274  1.0794113329779671
