Cs I  Pb
 1.0000000000000000
     8.6899151279139968   -0.0000000000000000    0.0000000000000000
     0.0000000000000000   17.2739081106780503    0.0000000000000000
     0.0000000000000000    0.0000000000000000   12.6730970277530357
 Cs  I   Pb 
   8  24   8
Selective dynamics
Cartesian
  4.3449575639569975 -0.0000000000000000  3.1682742569382580   T   T   T
 -0.0000000000000000  4.3184770276695126  3.1682742569382580   T   T   T
  4.3449575639569975 -0.0000000000000000  9.5048227708147763   T   T   T
  0.0000000000000000  4.3184770276695126  9.5048227708147763   T   T   T
  4.3449575639569975  8.6369540553390252  3.1682742569382580   T   T   T
  0.0000000000000000 12.9554310830085395  3.1682742569382580   T   T   T
  4.3449575639569975  8.6369540553390252  9.5048227708147763   T   T   T
  0.0000000000000000 12.9554310830085395  9.5048227708147763   T   T   T
  0.0000000000000000  0.0000000000000000  3.1682742569382580   T   T   T
  4.3449575639569975  4.3184770276695126  3.1682742569382580   T   T   T
  7.1019451145033177  2.7432241432369091  0.0000000000000000   T   T   T
  1.5879700134106791  5.8937299121021223  0.0000000000000000   T   T   T
  5.9329275773676748  7.0617011709064252  0.0000000000000000   T   T   T
  2.7569875505463219  1.5752528844326046  0.0000000000000000   T   T   T
  0.0000000000000000  0.0000000000000000  9.5048227708147763   T   T   T
  4.3449575639569975  4.3184770276695126  9.5048227708147763   T   T   T
  7.1019451145033177  2.7432241432369091  6.3365485138765161   T   T   T
  1.5879700134106791  5.8937299121021223  6.3365485138765161   T   T   T
  5.9329275773676748  7.0617011709064252  6.3365485138765161   T   T   T
  2.7569875505463219  1.5752528844326046  6.3365485138765161   T   T   T
 -0.0000000000000000  8.6369540553390252  3.1682742569382580   T   T   T
  4.3449575639569975 12.9554310830085395  3.1682742569382580   T   T   T
  7.1019451145033177 11.3801781985759405  0.0000000000000000   T   T   T
  1.5879700134106791 14.5306839674411545  0.0000000000000000   T   T   T
  5.9329275773676748 15.6986552262454460  0.0000000000000000   T   T   T
  2.7569875505463219 10.2122069397716384  0.0000000000000000   T   T   T
  0.0000000000000000  8.6369540553390252  9.5048227708147763   T   T   T
  4.3449575639569975 12.9554310830085395  9.5048227708147763   T   T   T
  7.1019451145033177 11.3801781985759405  6.3365485138765161   T   T   T
  1.5879700134106791 14.5306839674411545  6.3365485138765161   T   T   T
  5.9329275773676748 15.6986552262454460  6.3365485138765161   T   T   T
  2.7569875505463219 10.2122069397716384  6.3365485138765161   T   T   T
  0.0000000000000000 -0.0000000000000000  0.0000000000000000   T   T   T
  4.3449575639569975  4.3184770276695126  0.0000000000000000   T   T   T
  0.0000000000000000 -0.0000000000000000  6.3365485138765161   T   T   T
  4.3449575639569975  4.3184770276695126  6.3365485138765161   T   T   T
  0.0000000000000000  8.6369540553390252  0.0000000000000000   T   T   T
  4.3449575639569975 12.9554310830085395  0.0000000000000000   T   T   T
  0.0000000000000000  8.6369540553390252  6.3365485138765161   T   T   T
  4.3449575639569975 12.9554310830085395  6.3365485138765161   T   T   T
