Cs I  Pb
 1.0000000000000000
     9.1256189186132133    0.0000000000000000    0.0000000000000002
     0.0000000000000022   17.6640184914980374    0.0000000000000311
    -0.0000000000000089    0.0000000000000071   12.5878948743362642
 Cs  I   Pb 
   8  24   8
Cartesian
  8.4147290075936994  9.0211672473261864  3.1469737185840749
  3.8519195482870745  4.2268466212974047  3.1469737185840669
  0.7108899110194945 -0.1891580015771143  9.4409211557521679
  5.2736993703261055  4.6051626244516761  9.4409211557522017
  8.4147290075936994 17.8531764930752068  3.1469737185840989
  3.8519195482870852 13.0588558670464217  3.1469737185840927
  0.7108899110195344  8.6428512441719203  9.4409211557522070
  5.2736993703261055 13.4371718702007037  9.4409211557522301
  4.6010518903413109  8.0586198727296257  3.1469737185840772
  0.0382424310347108  5.1893939958939628  3.1469737185840629
  4.5245670282718793  0.7733893730194545  9.4409211557522017
  9.0873764875785152  3.6426152498551203  9.4409211557522141
  7.2632159015900726  7.0490529292213981 12.0604239666891591
  2.7004064422834744  6.1989609394022063  6.8214183448152506
  1.8624030170231296  1.7829563165277045  5.7664765295210154
  6.4252124763297278  2.6330483063468737  0.5274709076471227
  1.8624030170231316  1.7829563165276949  0.5274709076471203
  6.4252124763297349  2.6330483063468746  5.7664765295210083
  7.2632159015900823  7.0490529292213999  6.8214183448152603
  2.7004064422834726  6.1989609394022080 12.0604239666891537
  4.6010518903413162 16.8906291184786568  3.1469737185841056
  0.0382424310346998 14.0214032416429717  3.1469737185840767
  4.5245670282718811  9.6053986187684668  9.4409211557522053
  9.0873764875785010 12.4746244956041412  9.4409211557522088
  7.2632159015900708 15.8810621749704062 12.0604239666891662
  2.7004064422834766 15.0309701851512294  6.8214183448152648
  1.8624030170231298 10.6149655622767227  5.7664765295210296
  6.4252124763297189 11.4650575520958995  0.5274709076471307
  1.8624030170231116 10.6149655622767085  0.5274709076471197
  6.4252124763297376 11.4650575520958942  5.7664765295210296
  7.2632159015900788 15.8810621749703849  6.8214183448152710
  2.7004064422834575 15.0309701851512383 12.0604239666891679
  4.5628094593066058  0.0000000000000283 -0.0000000000000155
  0.0000000000000044  4.4160046228745449  6.2939474371681214
  4.5628094593066058  0.0000000000000389  6.2939474371681374
 -0.0000000000000005  4.4160046228745466  0.0000000000000199
  4.5628094593066004  8.8320092457490418  0.0000000000000101
 -0.0000000000000006 13.2480138686235538  6.2939474371681543
  4.5628094593065853  8.8320092457490400  6.2939474371681507
  0.0000000000000126 13.2480138686235520  0.0000000000000079
