Cs I  Pb
 1.0000000000000000
     8.8290451883888394    0.0000000000000000    0.0000000000000000
    -0.0000000000000293   17.6580903767654505    0.0000000000002471
    -0.0000000000000002    0.0000000000003114   12.9879136770448600
 Cs  I   Pb 
   8  24   8
Cartesian
  4.4145225941947146 -0.0000000000005710  3.2469784192612350
 -0.0000000000005969  4.4145225941899753  3.2469784192612852
  4.4145225941946320 -0.0000000000003459  9.7409352577836366
 -0.0000000000002378  4.4145225941901298  9.7409352577837023
  4.4145225941936932  8.8290451883836401  3.2469784192613473
  0.0000000000001985 13.2435677825759583  3.2469784192616125
  4.4145225941936896  8.8290451883839403  9.7409352577835637
  0.0000000000002492 13.2435677825763030  9.7409352577830752
 -0.0000000000004795  0.0000000000003325  3.2469784192612243
  4.4145225941943975  4.4145225941924711  3.2469784192613185
  7.1939443345994158  2.7794217404673378  0.0000000000001161
  1.6351008537814018  6.0496234479254367  0.0000000000000182
  6.0496234479705642  7.1939443346445788  0.0000000000002623
  2.7794217404227441  1.6351008537434950 -0.0000000000001261
 -0.0000000000003797  0.0000000000004682  9.7409352577836756
  4.4145225941943469  4.4145225941927828  9.7409352577837165
  7.1939443345994185  2.7794217404674915  6.4939568385224673
  1.6351008537813920  6.0496234479256001  6.4939568385225073
  6.0496234479705668  7.1939443346447298  6.4939568385222550
  2.7794217404227739  1.6351008537436962  6.4939568385225988
  0.0000000000004029  8.8290451883827501  3.2469784192612385
  4.4145225941941213 13.2435677825735638  3.2469784192633031
  7.1939443346029277 11.6084669288449192  0.0000000000007219
  1.6351008537936556 14.8786686362909908  0.0000000000006735
  6.0496234479758551 16.0229895230333597  0.0000000000003083
  2.7794217404075665 10.4641460421070658  0.0000000000001824
  0.0000000000004985  8.8290451883829046  9.7409352577836366
  4.4145225941939836 13.2435677825737272  9.7409352577812029
  7.1939443346031604 11.6084669288454450  6.4939568385231734
  1.6351008537934624 14.8786686362906782  6.4939568385230677
  6.0496234479756490 16.0229895230336012  6.4939568385227151
  2.7794217404076589 10.4641460421072665  6.4939568385225703
 -0.0000000000076215  0.0000000000030455  0.0000000000000867
  4.4145225941977335  4.4145225941847555 -0.0000000000000009
 -0.0000000000075549  0.0000000000027818  6.4939568385224327
  4.4145225941977237  4.4145225941848993  6.4939568385224087
  0.0000000000040662  8.8290451883843950  0.0000000000000170
  4.4145225941959678 13.2435677825814331  0.0000000000005487
  0.0000000000039891  8.8290451883848888  6.4939568385227258
  4.4145225941959678 13.2435677825815876  6.4939568385228403
