Cs I  Pb
 1.0000000000000000
     9.1900236511858342    0.0000000003814485    0.0000000022320457
     0.0000000007621257   17.2556070009516489    0.0000000052688526
     0.0000000032031560    0.0000000037789831   12.6982108442860433
 Cs  I   Pb 
   8  24   8
Cartesian
  8.4348944502349248  8.9463860010715575  3.1745524419384283
  3.8398827169740182  3.9953198592560488  3.1745525275418673
  0.7551291307544404 -0.3185825291890782  9.5236580979863454
  5.3501409244689730  4.6324848789274018  9.5236583742338770
  8.4348945857022226 17.5741895776198440  3.1745527258400799
  3.8398828180768714 12.6231220974719278  3.1745526315372765
  0.7551292213420744  8.3092209286877896  9.5236584510481759
  5.3501410231812292 13.2602871644686147  9.5236581452816313
  4.6554110686812686  7.9296247727973883  3.1745537501626973
  0.0603991906253517  5.0120799306410300  3.1745535094119033
  4.5346126403650624  0.6981781214680838  9.5236581829233344
  9.1296244683007881  3.6157231147550344  9.5236573700318647
  7.4087127036904574  7.0177589633718513 12.2205970503263543
  2.8136991287933619  5.9239443824503608  6.8267191001309744
  1.7813119997583728  1.6100430876497691  5.8714914514485992
  6.3763232406124448  2.7038576606072007  0.4776140259465191
  1.7813123834519984  1.6100426551049958  0.4776140206311983
  6.3763236522553095  2.7038580588869157  5.8714914477084372
  7.4087123115399924  7.0177592260765902  6.8267191011894859
  2.8136988789874682  5.9239440538506898 12.2205970604166918
  4.6554109878445846 16.5574286439617744  3.1745526409955862
  0.0603991900851305 13.6398840000727493  3.1745528867849506
  4.5346125593914879  9.3259820991722666  9.5236571155061736
  9.1296244818588139 12.2435272152901700  9.5236579181219660
  7.4087114663837275 15.6455640526259163 12.2205970621656146
  2.8137001085521636 14.5517490969912604  6.8267192034693371
  1.7813114249492106 10.2378475553262049  5.8714915021103469
  6.3763249825853459 11.3316632282388738  0.4776139657946996
  1.7813107106485062 10.2378482395363086  0.4776139886930148
  6.3763243204560593 11.3316625145484622  5.8714915429377301
  7.4087114540688370 15.6455639608586097  6.8267191642617240
  2.8137001495306313 14.5517491028011765 12.2205970368516770
  4.5950118227116743  0.0000002988464686 -0.0000006275912705
  0.0000000597571937  4.3139033462149357  6.3491059235470280
  4.5950120174428193 -0.0000002862128878  6.3491062009620025
  0.0000002492420066  4.3139041044693318 -0.0000006893722641
  4.5950119260219200  8.6278031293495072 -0.0000005789234363
 -0.0000002564350855 12.9417041729217601  6.3491059048387397
  4.5950119660774789  8.6278035032254170  6.3491059153022160
 -0.0000003654793451 12.9417031087856547 -0.0000002048115061
