Cs I  Pb
 1.0000000000000000
     8.8219736536846440   -0.0000000000000000   -0.0000000000000000
    -0.0000000000000005   17.6439473073696291    0.0000000000000049
     0.0000000000000002    0.0000000000000118   12.9664211682834729
 Cs  I   Pb 
   8  24   8
Cartesian
  4.4109868268422989 -0.0000000000000276  3.2416052920708651
 -0.0000000000000118  4.4109868268423806  3.2416052920708660
  4.4109868268423220  0.0000000000000038  9.7248158762125989
  0.0000000000000031  4.4109868268424188  9.7248158762126025
  4.4109868268423131  8.8219736536847932  3.2416052920708656
 -0.0000000000000129 13.2329604805272005  3.2416052920708696
  4.4109868268423025  8.8219736536848146  9.7248158762126060
  0.0000000000000128 13.2329604805272272  9.7248158762126042
 -0.0000000000000146  0.0000000000000066  3.2416052920708633
  4.4109868268423291  4.4109868268423957  3.2416052920708633
  7.1974287081525556  2.7864418813102541 -0.0000000000000174
  1.6245449455320731  6.0355317723745401  0.0000000000000111
  6.0355317723743971  7.1974287081526596 -0.0000000000000104
  2.7864418813102341  1.6245449455321357 -0.0000000000000041
  0.0000000000000017 -0.0000000000000161  9.7248158762125989
  4.4109868268422971  4.4109868268424091  9.7248158762126007
  7.1974287081525556  2.7864418813102589  6.4832105841417498
  1.6245449455320726  6.0355317723745454  6.4832105841417196
  6.0355317723743989  7.1974287081526667  6.4832105841417400
  2.7864418813102341  1.6245449455321408  6.4832105841417293
 -0.0000000000000220  8.8219736536848163  3.2416052920708660
  4.4109868268423309 13.2329604805272130  3.2416052920708718
  7.1974287081525556 11.6084155349950642 -0.0000000000000111
  1.6245449455320744 14.8575054260593564  0.0000000000000160
  6.0355317723743971 16.0194023618374715 -0.0000000000000006
  2.7864418813102296 10.4465185992169527  0.0000000000000048
  0.0000000000000088  8.8219736536848057  9.7248158762126007
  4.4109868268422971 13.2329604805272254  9.7248158762126007
  7.1974287081525574 11.6084155349950731  6.4832105841417507
  1.6245449455320740 14.8575054260593600  6.4832105841417222
  6.0355317723743953 16.0194023618374821  6.4832105841417391
  2.7864418813102314 10.4465185992169545  6.4832105841417267
 -0.0000000000000068 -0.0000000000000071 -0.0000000000000067
  4.4109868268423158  4.4109868268423966 -0.0000000000000041
 -0.0000000000000066 -0.0000000000000032  6.4832105841417311
  4.4109868268423176  4.4109868268424028  6.4832105841417338
 -0.0000000000000103  8.8219736536848057 -0.0000000000000034
  4.4109868268423167 13.2329604805272112  0.0000000000000023
 -0.0000000000000079  8.8219736536848110  6.4832105841417347
  4.4109868268423167 13.2329604805272165  6.4832105841417356
