Cs I  Pb
 1.0000000000000000
     9.3343794985893034    0.0000000000198720    0.0000000002343241
     0.0000000000422642   16.8265047641198358   -0.0000000020738211
     0.0000000003405905   -0.0000000014542702   12.7177934899696048
 Cs  I   Pb 
   8  24   8
Cartesian
  8.4872640549637612  8.7415396019181220  3.1794483764677453
  3.8200742789278750  3.8783389694511095  3.1794483664588440
  0.8471154679962621 -0.3282872128476956  9.5383451236565584
  5.5143051923966686  4.5349134021066417  9.5383451182468093
  8.4872640539802671 17.1547919925715284  3.1794483655439425
  3.8200742937010714 12.2915913488779420  3.1794483696895148
  0.8471154681958029  8.0849651800946791  9.5383451132163160
  5.5143052032123938 12.9481657768333758  9.5383451166514313
  4.7256891507834045  7.7349970085661521  3.1794483583638264
  0.0584994010538450  4.8848815496950415  3.1794483959817597
  4.6086903510681481  0.6782553594696858  9.5383449585725373
  9.2758801002852564  3.5283708182197020  9.5383450885564418
  7.5316815626031124  6.8716485591492082 12.1906658453399466
  2.8644918206806009  5.7482300133962969  6.8860243879437331
  1.8026979139382047  1.5416038542376309  5.8317691208581763
  6.4698876795688065  2.6650223525658414  0.5271276332502809
  1.8026979181711098  1.5416038476890197  0.5271276333989309
  6.4698876736387563  2.6650223429032609  5.8317691185355613
  7.5316816005736813  6.8716485236823832  6.8860243896754287
  2.8644918387496063  5.7482300337597891 12.1906658454549035
  4.7256891507301910 16.1482493913809044  3.1794485278560840
  0.0584993966419638 13.2981339478497702  3.1794483524286798
  4.6086903487276318  9.0915077383222869  9.5383451303214901
  9.2758800952857285 11.9416232154642525  9.5383451387823293
  7.5316815813149409 15.2849009351481957 12.1906658415556652
  2.8644918374443309 14.1614824158701786  6.8860243818522608
  1.8026979035152424  9.9548562445120421  5.8317691067235540
  6.4698876648827826 11.0782747202509917  0.5271276337038187
  1.8026979360231838  9.9548562209323777  0.5271276309727989
  6.4698876733677624 11.0782747335514298  5.8317691055967051
  7.5316815799921182 15.2849009291185123  6.8860243799992409
  2.8644918231225414 14.1614824016564604 12.1906658461392681
  4.6671897193595342  0.0000000331864946  0.0000000023132317
  0.0000000078755916  4.2066261805837586  6.3588966820737962
  4.6671897311414350  0.0000000250657830  6.3588967462060628
  0.0000000209511291  4.2066261496685229  0.0000000709292212
  4.6671897229704511  8.4132524165383771 -0.0000000126451285
  0.0000000109782147 12.6198785199987480  6.3588967439270956
  4.6671897348676259  8.4132524186540056  6.3588967558506750
  0.0000000178564378 12.6198785323972515 -0.0000000061653376
