Cs I  Pb
 1.0000000000000000
     9.3348791040170269    0.0000000000000001   -0.0000000000000000
     0.0000000000000026   16.8251619585975121    0.0000000000000123
    -0.0000000000000003   -0.0000000000000028   12.7180530636077265
 Cs  I   Pb 
   8  24   8
Cartesian
  8.4876333894513554  8.7410392974687952  3.1795132659019365
  3.8201938374428290  3.8778321714794086  3.1795132659019334
  0.8472457145656836 -0.3284583181699544  9.5385397977057895
  5.5146852665741815  4.5347488078194180  9.5385397977057966
  8.4876333894513589 17.1536202767675725  3.1795132659019427
  3.8201938374428348 12.2904131507781820  3.1795132659019343
  0.8472457145656592  8.0841226611288004  9.5385397977057931
  5.5146852665741770 12.9473297871181732  9.5385397977058073
  4.7260336831062153  7.7345322663546234  3.1795132659019330
  0.0585941310977001  4.8843392025935906  3.1795132659019294
  4.6088454209108107  0.6780487129442136  9.5385397977057913
  9.2762849729193189  3.5282417767052388  9.5385397977057949
  7.5321323990653877  6.8712852776728033 12.1909675873703947
  2.8646928470568676  5.7475861912754080  6.8861120080412022
  1.8027467049516410  1.5412957016260265  5.8319410555665288
  6.4701862569601545  2.6649947880234390  0.5270854762373310
  1.8027467049516412  1.5412957016260276  0.5270854762373308
  6.4701862569601536  2.6649947880234381  5.8319410555665261
  7.5321323990653823  6.8712852776728139  6.8861120080411986
  2.8646928470568640  5.7475861912754009 12.1909675873703982
  4.7260336831062117 16.1471132456533724  3.1795132659019374
  0.0585941310976983 13.2969201818923608  3.1795132659019365
  4.6088454209108169  9.0906296922429668  9.5385397977058020
  9.2762849729193331 11.9408227560039979  9.5385397977058037
  7.5321323990653841 15.2838662569715709 12.1909675873704053
  2.8646928470568698 14.1601671705741587  6.8861120080412057
  1.8027467049516424  9.9538766809247772  5.8319410555665412
  6.4701862569601545 11.0775757673222000  0.5270854762373351
  1.8027467049516395  9.9538766809247861  0.5270854762373334
  6.4701862569601518 11.0775757673221982  5.8319410555665385
  7.5321323990653859 15.2838662569715691  6.8861120080411986
  2.8646928470568680 14.1601671705741552 12.1909675873703982
  4.6674395520085179  0.0000000000000530 -0.0000000000000083
  0.0000000000000079  4.2062904896494189  6.3590265318038499
  4.6674395520085108  0.0000000000000483  6.3590265318038686
 -0.0000000000000032  4.2062904896494286  0.0000000000000089
  4.6674395520085143  8.4125809792987969  0.0000000000000180
  0.0000000000000011 12.6188714689481767  6.3590265318038703
  4.6674395520085090  8.4125809792987845  6.3590265318038517
 -0.0000000000000060 12.6188714689481749  0.0000000000000054
