Cs I  Pb
 1.0000000000000000
    12.7082869376936429    0.0000000000000000    0.0000000000000000
    -0.0000000000000009   12.7082869376937833   -0.0000000000000534
     0.0000000000000016   -0.0000000000000379   12.7082869376937797
 Cs  I   Pb 
   8  24   8
Cartesian
  3.1770717344234494  3.1770717344234312  3.1770717344234556
  3.1770717344234476  3.1770717344234334  9.5312152032703281
  3.1770717344234254  9.5312152032703406  3.1770717344234147
  3.1770717344234329  9.5312152032703192  9.5312152032702944
  9.5312152032702464  3.1770717344234445  3.1770717344234565
  9.5312152032702393  3.1770717344234400  9.5312152032703246
  9.5312152032702500  9.5312152032703477  3.1770717344234245
  9.5312152032702500  9.5312152032703228  9.5312152032703175
  0.0000000000000377  0.0000000000000090  3.1770717344234636
  0.0000000000000095  3.1770717344234582  0.0000000000000069
  3.1770717344234338  0.0000000000000100  0.0000000000000178
  0.0000000000000144 -0.0000000000000116  9.5312152032703548
  0.0000000000000027  3.1770717344234396  6.3541434688468907
  3.1770717344234307 -0.0000000000000053  6.3541434688469227
  0.0000000000000245  6.3541434688468907  3.1770717344234352
  0.0000000000000151  9.5312152032703530 -0.0000000000000211
  3.1770717344234281  6.3541434688469121 -0.0000000000000272
  0.0000000000000100  6.3541434688468765  9.5312152032703281
  0.0000000000000169  9.5312152032703370  6.3541434688468756
  3.1770717344234285  6.3541434688468863  6.3541434688468890
  6.3541434688468286  0.0000000000000132  3.1770717344234618
  6.3541434688468508  3.1770717344234591  0.0000000000000020
  9.5312152032702553 -0.0000000000000031  0.0000000000000353
  6.3541434688468525 -0.0000000000000139  9.5312152032703512
  6.3541434688468490  3.1770717344234400  6.3541434688468721
  9.5312152032702535 -0.0000000000000065  6.3541434688468827
  6.3541434688468303  6.3541434688468970  3.1770717344234312
  6.3541434688468428  9.5312152032703512 -0.0000000000000277
  9.5312152032702517  6.3541434688469076 -0.0000000000000144
  6.3541434688468463  6.3541434688468765  9.5312152032703246
  6.3541434688468375  9.5312152032703388  6.3541434688468650
  9.5312152032702517  6.3541434688468863  6.3541434688468614
  0.0000000000000231  0.0000000000000107  0.0000000000000184
  0.0000000000000189 -0.0000000000000068  6.3541434688469094
  0.0000000000000143  6.3541434688469067 -0.0000000000000102
  0.0000000000000153  6.3541434688468872  6.3541434688468827
  6.3541434688468419  0.0000000000000115  0.0000000000000172
  6.3541434688468446 -0.0000000000000032  6.3541434688469032
  6.3541434688468392  6.3541434688469085 -0.0000000000000126
  6.3541434688468437  6.3541434688468881  6.3541434688468774
