Cs I  Pb
 1.0000000000000000
    10.6683058123447605   -0.0000000198969166   -0.0000002535923427
    -0.0000000184278600    9.7653576378644260   -0.0000000008955362
    -0.0000004374758390   -0.0000000015680350   18.0690774503925979
 Cs  I   Pb 
   8  24   8
Cartesian
  4.4488682008219236  1.2193907446122081 12.1122475348938163
  0.8852805796053127  3.6632886791413077  3.0777103514189208
  6.2194403230766389  3.6607290358439868  5.9568322057857968
  9.7830208436101014  1.2219485993510670 14.9913690905520802
  4.4488686592609641  6.1020685114255437 12.1122489691274495
  0.8852811658267169  8.5459668941332421  3.0777090753047815
  6.2194388261044020  8.5434085373038524  5.9568299158710394
  9.7830194092045524  6.1046287226098901 14.9913712242447641
  1.7954632302955085  1.2216310592326201  0.0051767113756364
  3.5386759141490418  3.6610541791106455  9.0397079018138182
  8.8728411905803846  3.6629664234202410 18.0639007167645431
  7.1296184465768455  1.2197096143420378  9.0293645447148716
  3.1472611710826062  1.2210797087540244  5.2184224582075265
  2.1869002676487899  3.6615972009151334 14.2529757460297652
  7.5210395160703349  3.6624197941639731 12.8506624882442750
  8.4814090338604018  1.2202583941863516  3.8161062327926545
  0.3074119868358761  1.2204013894292547 11.0573375309819344
  5.0267356372536680  3.6622754963264859  2.0227987051243490
 10.3609087938915305  3.6617445648750850  7.0117454979515106
  5.6415609317871773  1.2209389345102926 16.0462749110910394
  1.7954703408670958  6.1043064139958316  0.0051742149656357
  3.5386861581925273  8.5437246801672870  9.0397112645306805
  8.8728393392681806  8.5456488756931694 18.0639011408588175
  7.1296158601268758  6.1023892021064050  9.0293636726245765
  3.1472539399673272  6.1037614824570277  5.2184385669952409
  2.1868956549980023  8.5442779500818542 14.2529678597896421
  7.5210431700861990  8.5450991799512934 12.8506562084487168
  8.4814172815699695  6.1029378053604191  3.8161209946506989
  0.3074153862220951  6.1030808205394367 11.0573361078021808
  5.0267366508069893  8.5449579502255126  2.0228000716536285
 10.3609045446442476  8.5444153385943657  7.0117380439777168
  5.6415564408226242  6.1036156138498034 16.0462789100153600
  1.6981282548817909  1.2197530087249944  7.9551784630101938
  3.6360142574246845  3.6629467312905315 16.9897012784305730
  8.9701737307968177  3.6610773117064266 10.1138873303224308
  7.0322999846781489  1.2215960361830103  1.0793721575109820
  1.6981348636018447  6.1024080445512539  7.9551647864532571
  3.6360178780519625  8.5456068991921850 16.9897069707632760
  8.9701676352387629  8.5437631373671739 10.1138996481330334
  7.0322917571600403  6.1042791318138292  1.0793543384832915
