Cs I  Pb
 1.0000000000000000
    13.6382244563329476    0.4611771057138849   -1.5083394570883737
     0.4966204248295751   12.6004526917654065   -0.7324759148763187
    -1.3933692773662076   -0.6819973713695797   12.5200600938675919
 Cs  I   Pb 
   8  24   8
Cartesian
  3.8547285919023357  2.5684760205699941  2.1838373269205151
  2.2145688594132960  3.2290360088560512  9.3784765370824434
  3.6029487871651016  9.2924429963774458  2.3847838134461350
  2.8876392022689821  9.1510924799402655  8.6797972706780637
  9.7303473068327904  3.8006124040479485  2.3643030619069676
  9.9771700701864692  2.4580716839626371  7.6896946631206120
 10.4034358132986178  9.7226689757289932  1.6655915532202434
  9.7253847243630833  9.1820326589100993  7.8906511453202643
 -1.6613148589596456  0.1174804737489801  3.4346987427258981
  0.8015768795629800  3.0598634640765243 -0.4527802619873333
  3.0044914680317816 -0.6935775689426531  0.2240660375147803
 -1.1755466611869940 -1.2324705923660140  9.5121183985209008
 -0.7435260234184833  2.9212868010814512  6.7489989239911194
  2.6278846790121015  0.2397458579982680  5.0416414928806290
 -1.1092495918791099  5.7643169147693536  2.6678313274832126
 -0.2303211029112421  9.4010340141480508  0.2222437445385714
  4.1446828998832794  7.0891745320508264 -0.7985742987800719
 -0.2178113478971770  6.5714025145297281  9.0776761417230993
  0.5645759347432482  9.1624744316320896  5.1807559942128467
  3.1748943423229927  5.7775493776907343  4.1901237470651216
  6.3402505641453715 -0.6608810640377484  2.4979198422299778
  6.7722788118393291  3.4928826939896389 -0.2652118156169644
 10.1436783134842798  0.8113257029616954 -1.9725368271712940
  4.4611205237852323  0.0070702726804512  8.9405607297977809
  6.9239964920978316  2.9494516920335085  5.0530833130532544
  9.1269127860947119 -0.8039849213094712  5.7299316520616674
  7.2979828571739604  7.1429879895105044  2.0634639841959070
  8.0803906930652900  9.7340746841146757 -1.8334393844964507
 10.6906783947470210  6.3491453640963789 -2.8240840945765244
  5.0131902970079931  5.6539131877429885  8.1736935006715346
  5.8921005300981619  9.2906252966476970  5.7280864119329715
 10.2671072761674882  6.9787639102447319  4.7072897973860925
  0.0363217852168609 -0.1330131793138383 -0.0042942056777393
 -0.2106581709754614 -0.2481321575952654  6.0564885239211756
 -0.1586560303617446  6.2132509102028459 -0.2503267634090131
 -0.4074901215159948  6.1000071029221248  6.0196286304961415
  7.3051308421811347  0.3234650880883694 -0.9577102575835660
  6.1587364876279258 -0.2434308452962776  5.5015618810777651
  7.1083258824946203  6.6716086417915648 -0.9945803483015737
  5.9637923514744271  6.1028411883781661  5.2555251414172988
