Cs I  Pb
 1.0000000000000000
    12.2526403595559508   -0.0000000000000000   -0.0000000000000000
    -0.0000000000000000   12.2526403595559508   -0.0000000000000000
    -0.0000000000000000   -0.0000000000000000   12.2526403595559508
 Cs  I   Pb 
   8  24   8
Selective dynamics
Cartesian
  3.0631600898889872  3.0631600898889872  3.0631600898889877   T   T   T
  3.0631600898889872  3.0631600898889872  9.1894802696669622   T   T   T
  3.0631600898889872  9.1894802696669622  3.0631600898889877   T   T   T
  3.0631600898889872  9.1894802696669622  9.1894802696669622   T   T   T
  9.1894802696669622  3.0631600898889872  3.0631600898889877   T   T   T
  9.1894802696669622  3.0631600898889872  9.1894802696669622   T   T   T
  9.1894802696669622  9.1894802696669622  3.0631600898889877   T   T   T
  9.1894802696669622  9.1894802696669622  9.1894802696669622   T   T   T
 -0.0000000000000004 -0.0000000000000004  3.0631600898889877   T   T   T
 -0.0000000000000004  3.0631600898889872 -0.0000000000000000   T   T   T
  3.0631600898889872 -0.0000000000000004 -0.0000000000000000   T   T   T
 -0.0000000000000004 -0.0000000000000004  9.1894802696669622   T   T   T
 -0.0000000000000004  3.0631600898889872  6.1263201797779754   T   T   T
  3.0631600898889872 -0.0000000000000004  6.1263201797779754   T   T   T
 -0.0000000000000004  6.1263201797779745  3.0631600898889877   T   T   T
 -0.0000000000000004  9.1894802696669622 -0.0000000000000000   T   T   T
  3.0631600898889872  6.1263201797779745 -0.0000000000000000   T   T   T
 -0.0000000000000004  6.1263201797779745  9.1894802696669622   T   T   T
 -0.0000000000000004  9.1894802696669622  6.1263201797779754   T   T   T
  3.0631600898889872  6.1263201797779745  6.1263201797779754   T   T   T
  6.1263201797779745 -0.0000000000000004  3.0631600898889877   T   T   T
  6.1263201797779745  3.0631600898889872 -0.0000000000000000   T   T   T
  9.1894802696669622 -0.0000000000000004 -0.0000000000000000   T   T   T
  6.1263201797779745 -0.0000000000000004  9.1894802696669622   T   T   T
  6.1263201797779745  3.0631600898889872  6.1263201797779754   T   T   T
  9.1894802696669622 -0.0000000000000004  6.1263201797779754   T   T   T
  6.1263201797779745  6.1263201797779745  3.0631600898889877   T   T   T
  6.1263201797779745  9.1894802696669622 -0.0000000000000000   T   T   T
  9.1894802696669622  6.1263201797779745 -0.0000000000000000   T   T   T
  6.1263201797779745  6.1263201797779745  9.1894802696669622   T   T   T
  6.1263201797779745  9.1894802696669622  6.1263201797779754   T   T   T
  9.1894802696669622  6.1263201797779745  6.1263201797779754   T   T   T
 -0.0000000000000004 -0.0000000000000004  0.0000000000000000   T   T   T
 -0.0000000000000004 -0.0000000000000004  6.1263201797779754   T   T   T
 -0.0000000000000004  6.1263201797779745 -0.0000000000000000   T   T   T
 -0.0000000000000004  6.1263201797779745  6.1263201797779754   T   T   T
  6.1263201797779745 -0.0000000000000004 -0.0000000000000000   T   T   T
  6.1263201797779745 -0.0000000000000004  6.1263201797779754   T   T   T
  6.1263201797779745  6.1263201797779745 -0.0000000000000000   T   T   T
  6.1263201797779745  6.1263201797779745  6.1263201797779754   T   T   T
