Cs I  Pb
 1.0000000000000000
    10.4067888459881317   -1.4582285027133650    4.4788943613251728
    -1.3969973417442085    9.8152942323721533    0.1508557380223042
     7.6396350019581467    0.4532477074807224   27.5388995356232726
 Cs  I   Pb 
   8  24   8
Cartesian
 10.2375574764906929  0.1045584333439906 23.9244282971056634
  3.3798848768633505  4.5894242957098594  6.2665874368335714
  7.7140518872823867  2.6859536721723059  9.0194482379968015
 15.1608281136499379  0.6954890171196300 25.4699473825523981
  9.5390589457606438  5.0122051870641071 23.9998560810528190
  2.6813863129108917  9.4970703213728260  6.3420164015009455
  7.0155536756964789  7.5936001101973778  9.0948768489889833
 14.4623292572305431  5.6031363967100303 25.5453730449625738
  1.6414627082240405 -0.5551853420549505  3.2421973517433758
  6.2972545795768973  4.9537920495593735 11.8746700155675189
 15.9795370021041183  3.2371948489815598 28.2638897520865413
 10.7824845805805154  0.1194121605825313 20.1736658142512404
  3.9165130472632539  2.1252982911455742  8.9853113126674753
  8.2549191267588640  2.3330212940664041 26.4569825673536414
 12.8420498343531939  2.9302209493532314 23.4755545319888661
  7.8443065106586891  0.2296786557426869  6.0785376946370846
  4.7033032014002423  2.1924333844371713 15.4247452030476104
  5.2079926431409911  2.3777680863618147  3.4833730810026333
 12.3717168366410224  2.8776921693210595 16.9363184355171654
 12.0499509218276017  0.3336515880556554 27.5078232065117270
  0.9429643480700283  4.3524618674546653  3.3176255761293660
  5.5987559927499717  9.8614391925247968 11.9500974551564525
 15.2810378793874708  8.1448432098109596 28.3393191274729546
 10.0839865429414335  5.0270586685514491 20.2490939802372409
  3.2180147772667334  7.0329458766652664  9.0607401502032161
  7.5564194053050588  7.2406687622102899 26.5324083660628212
 12.1435506557071626  7.8378683606831956 23.5509823250959904
  7.1458095311714711  5.1373255935984403  6.1539676404604018
  4.0048059833744949  7.1000803737669962 15.5001760617464299
  4.5094942586825919  7.2854160013791160  3.5588012045988076
 11.6732190196609338  7.7853390979545889 17.0117460070665985
 11.3514526916933605  5.2412984770778142 27.5832516901491900
  4.4500193034413593  2.1832495973294277 12.1497909633764749
 10.2200985879522523  2.5495670739390630 29.0556050274080349
 12.5435833620407706  2.8857640174284027 20.1706138726151103
  7.8831490286858195  0.1778126835310004  2.9757166615004094
  3.7515204963991935  7.0908970123059696 12.2252181711347276
  9.5216006775757229  7.4572137007734121 29.1310340668588523
 11.8450831650582131  7.7934121828467395 20.2460401041086797
  7.1846506276882591  5.0854601845040079  3.0511428181949132
