Cs I  Pb
 1.0000000000000000
    12.7700533684107445   -0.0000000000000388    0.0000000000002657
     0.0000000000001831   12.7700533684109949    0.0000000000006974
     0.0000000000003596    0.0000000000001377   12.7700533684108741
 Cs  I   Pb 
   8  24   8
Cartesian
  3.1925133421028966  3.1925133421028518  3.1925133421030356
  3.1925133421030791  3.1925133421029188  9.5775400263084016
  3.1925133421029921  9.5775400263082755  3.1925133421033829
  3.1925133421031706  9.5775400263083448  9.5775400263087533
  9.5775400263081956  3.1925133421028349  3.1925133421031680
  9.5775400263083750  3.1925133421029024  9.5775400263085348
  9.5775400263082915  9.5775400263082471  3.1925133421035183
  9.5775400263084656  9.5775400263083164  9.5775400263088741
  0.0000000000000865  0.0000000000000317  3.1925133421027896
  0.0000000000000454  3.1925133421028202  0.0000000000001716
  3.1925133421027536 -0.0000000000000120  0.0000000000000635
  0.0000000000002707  0.0000000000001038  9.5775400263081707
  0.0000000000002226  3.1925133421028904  6.3850266842057684
  3.1925133421029361  0.0000000000000570  6.3850266842056609
  0.0000000000001788  6.3850266842056866  3.1925133421031351
  0.0000000000001355  9.5775400263082595  0.0000000000005239
  3.1925133421028438  6.3850266842056431  0.0000000000004138
  0.0000000000003575  6.3850266842057550  9.5775400263085224
  0.0000000000003151  9.5775400263083341  6.3850266842061121
  3.1925133421030290  6.3850266842057097  6.3850266842060064
  6.3850266842056183  0.0000000000000130  3.1925133421029215
  6.3850266842055747  3.1925133421027971  0.0000000000003071
  9.5775400263080712 -0.0000000000000315  0.0000000000001999
  6.3850266842057932  0.0000000000000814  9.5775400263083039
  6.3850266842057541  3.1925133421028686  6.3850266842059016
  9.5775400263082506  0.0000000000000362  6.3850266842057861
  6.3850266842057071  6.3850266842056698  3.1925133421032710
  6.3850266842056609  9.5775400263082417  0.0000000000006528
  9.5775400263081636  6.3850266842056218  0.0000000000005455
  6.3850266842058874  6.3850266842057355  9.5775400263086503
  6.3850266842058456  9.5775400263083164  6.3850266842062506
  9.5775400263083483  6.3850266842056920  6.3850266842061378
  0.0000000000000155  0.0000000000000153  0.0000000000000153
  0.0000000000001933  0.0000000000000828  6.3850266842055712
  0.0000000000001059  6.3850266842056280  0.0000000000003625
  0.0000000000002851  6.3850266842056973  6.3850266842059202
  6.3850266842055010 -0.0000000000000058  0.0000000000001450
  6.3850266842056831  0.0000000000000623  6.3850266842057017
  6.3850266842055925  6.3850266842056085  0.0000000000004965
  6.3850266842057719  6.3850266842056778  6.3850266842060508
