Cs I  Pb
 1.0000000000000000
     8.6416576412508341    0.0063427273450166   -0.0139777240065202
     0.0126971965178218   17.3224281259752253   -0.0041861288092293
    -0.0194613236782881   -0.0029156214987959   12.6733827907712140
 Cs  I   Pb 
   8  24   8
Cartesian
  4.2718807386817321  0.0345137360766234  3.1600320904795867
 -0.0374616473877820  4.2994553952488621  3.1579823812536976
  4.2621578904875133  0.0330649448200673  9.4967261978902844
 -0.0471908272691719  4.2979942136743770  9.4946721818802011
  4.2782232243728355  8.6957414164849549  3.1579410800826104
 -0.0311216308670391 12.9606788552254457  3.1558827396730238
  4.2684891267521827  8.6942719828385879  9.4946329226046888
 -0.0408352419991421 12.9592048173060750  9.4925740038127007
  0.0136412797365793  0.0177566430711780  3.1727203158221760
  4.3508779370354782  4.3130285088943010  3.1646412924805816
  7.0749473544220312  2.7522232029328637 -0.0371974008429201
  1.5848907569075501  5.9035972344543959 -0.0036006658330512
  5.9006948267761938  7.0922432567220914 -0.0109462560258934
  2.7432009472120131  1.5874639322828783 -0.0175815251980875
  0.0039559825800786  0.0162661788179367  9.5093938336480601
  4.3411590281533643  4.3115523574103864  9.5013335774161138
  7.0652230717881812  2.7507532952484399  6.2994893403427916
  1.5751782782243124  5.9021397822963815  6.3331046581527657
  5.8909684999723382  7.0907750387509658  6.3257598619886393
  2.7334634222873251  1.5860061008445125  6.3191462865330985
  0.0200245604309831  8.6789382958743779  3.1705973469474391
  4.3572383533044512 12.9742039291660500  3.1625561255643975
  7.0812962370435510 11.4134255316754469 -0.0392924402133815
  1.5912455726369485 14.5648241285692706 -0.0056915007030801
  5.9070386625720701 15.7534415071905745 -0.0130135276832022
  2.7495398109303872 10.2486748838522796 -0.0196592063985800
  0.0103101732960270  8.6775143615992203  9.5073077815937808
  4.3475166746328355 12.9727903339785922  9.4992514653674363
  7.0715636599371763 11.4119753096044896  6.2973936183196724
  1.5815078433048033 14.5633629474674375  6.3309887793679440
  5.8973092511759404 15.7519973920400940  6.3236357138354178
  2.7398285258812844 10.2472265161063198  6.3170437811317868
  0.0081072637650203 -0.0066859855148311  0.0193234017348041
  4.3377306813537295  4.3399726130604819  0.0117438808192538
 -0.0016294520235066 -0.0081504245064636  6.3560177094436714
  4.3280096646867214  4.3385126715002604  6.3484427371513572
  0.0144479253574719  8.6545225281261615  0.0172339136346665
  4.3440873480462878 13.0011865133644378  0.0096565125006584
  0.0047239386093591  8.6530682996942918  6.3539249206239585
  4.3343614553287946 12.9997259209356812  6.3463387538950178
