Cs I  Pb
 1.0000000000000000
    12.8049521490094502   -0.0000000283106692    0.0000000408357826
    -0.0000000283092940   12.8049523150430051   -0.0000000294554453
     0.0000000408355049   -0.0000000294561419   12.8049521729948683
 Cs  I   Pb 
   8  24   8
Cartesian
  3.2012382360777152  3.2012384474496973  3.2012375290802613
  3.2012375262290775  3.2012376887662932  9.6037135450345819
  3.2012381237193499  9.6037141785530018  3.2012380609477797
  3.2012381004218717  9.6037138858220548  9.6037134873482248
  9.6037142652346947  3.2012379924404399  3.2012384161113379
  9.6037131424431923  3.2012382529225536  9.6037139795606645
  9.6037143461562717  9.6037140271773556  3.2012384871697712
  9.6037140731850545  9.6037142949358447  9.6037144521413076
 -0.0000008938271290 -0.0000000113916166  3.2012381565741115
  0.0000002616975123  3.2012378894726266  0.0000011753929690
  3.2012407651247958 -0.0000005575404877 -0.0000003973801640
  0.0000006253214620  0.0000002824917974  9.6037090400798419
  0.0000003888021863  3.2012402595394525  6.4024760391195681
  3.2012379383275165 -0.0000000144607562  6.4024766831716340
 -0.0000004247531961  6.4024760516188950  3.2012392047135618
  0.0000006142388592  9.6037093791455792  0.0000006015153614
  3.2012406920793879  6.4024773940146336  0.0000005385598132
  0.0000006286413675  6.4024768626126196  9.6037081291521087
  0.0000007643311053  9.6037095668705312  6.4024763648797229
  3.2012395701785303  6.4024775156328531  6.4024769754305497
  6.4024767343634137  0.0000004845515895  3.2012410055706493
  6.4024767783675403  3.2012385128861669  0.0000003154744720
  9.6037079688939038  0.0000008408379204  0.0000008286582514
  6.4024760386968786  0.0000003256546744  9.6037099645747706
  6.4024777911045598  3.2012371586692772  6.4024761852387249
  9.6037085121908188  0.0000009594367833  6.4024757560129162
  6.4024759464154748  6.4024766602827485  3.2012391950354360
  6.4024762416880288  9.6037095470969476  0.0000003769194069
  9.6037089031639553  6.4024761544850879  0.0000007670526177
  6.4024768535067231  6.4024772212560306  9.6037094415804098
  6.4024760099827871  9.6037082119789972  6.4024761102778722
  9.6037078875351778  6.4024753250953390  6.4024755685027932
  0.0000014893171454  0.0000018499367247  0.0000019002080189
  0.0000016040445091  0.0000039528953489  6.4024780117625246
  0.0000038408752133  6.4024784717571803  0.0000022690093791
  0.0000018472543722  6.4024737313371824  6.4024775812573917
  6.4024773938172599  0.0000032336565060  0.0000024285383284
  6.4024783451826792  0.0000015381582500  6.4024745528686626
  6.4024736285395143  6.4024746652997377  0.0000030807877597
  6.4024776877745051  6.4024793348028375  6.4024748371737079
