Cs I  Pb
 1.0000000000000000
    10.4974519698826114    0.0000000000000000    0.0000000000000000
    -0.0000000000000000    9.2831225302233715    0.0000000000000000
     0.0000000000000000    0.0000000000000000   17.8367895349539474
 Cs  I   Pb 
   8  24   8
Selective dynamics
Cartesian
  4.4133935640374427  1.1603903162779212 11.9718847011246012   T   T   T
  0.8353324209038572  3.4811709488337654  3.0534899336476196   T   T   T
  6.0840584058451634  3.4811709488337654  5.8649048338293435   T   T   T
  9.6621195489787546  1.1603903162779212 14.7832996013063180   T   T   T
  4.4133935640374427  5.8019515813896074 11.9718847011246012   T   T   T
  0.8353324209038572  8.1227322139454454  3.0534899336476196   T   T   T
  6.0840584058451634  8.1227322139454454  5.8649048338293435   T   T   T
  9.6621195489787546  5.8019515813896074 14.7832996013063180   T   T   T
  1.6778551409963300  1.1603903162779212 -0.0650968497462591   T   T   T
  3.5708708439449754  3.4811709488337654  8.8532979177307300   T   T   T
  8.8195968288862758  3.4811709488337654 17.9018863847002052   T   T   T
  6.9265811259376351  1.1603903162779212  8.9834916172232244   T   T   T
  3.0734357639294467  1.1603903162779212  5.1734803714203217   T   T   T
  2.1752902210118581  3.4811709488337654 14.0918751388972971   T   T   T
  7.4240162059531674  3.4811709488337654 12.6633091635336203   T   T   T
  8.3221617488707622  1.1603903162779212  3.7449143960566458   T   T   T
  0.4141052643178811  1.1603903162779212 11.0455684927622979   T   T   T
  4.8346207206234189  3.4811709488337654  2.1271737252853300   T   T   T
 10.0833467055647308  3.4811709488337654  6.7912210421916441   T   T   T
  5.6628312492591855  1.1603903162779212 15.7096158096686160   T   T   T
  1.6778551409963300  5.8019515813896074 -0.0650968497462591   T   T   T
  3.5708708439449754  8.1227322139454454  8.8532979177307300   T   T   T
  8.8195968288862758  8.1227322139454454 17.9018863847002052   T   T   T
  6.9265811259376351  5.8019515813896074  8.9834916172232244   T   T   T
  3.0734357639294467  5.8019515813896074  5.1734803714203217   T   T   T
  2.1752902210118581  8.1227322139454454 14.0918751388972971   T   T   T
  7.4240162059531674  8.1227322139454454 12.6633091635336203   T   T   T
  8.3221617488707622  5.8019515813896074  3.7449143960566458   T   T   T
  0.4141052643178811  5.8019515813896074 11.0455684927622979   T   T   T
  4.8346207206234189  8.1227322139454454  2.1271737252853300   T   T   T
 10.0833467055647308  8.1227322139454454  6.7912210421916441   T   T   T
  5.6628312492591855  5.8019515813896074 15.7096158096686160   T   T   T
  1.6133906271428415  1.1603903162779212  7.8711625170865140   T   T   T
  3.6353353577984655  3.4811709488337654 16.7895572845634788   T   T   T
  8.8840613427397805  3.4811709488337654  9.9656270178674369   T   T   T
  6.8621166120841455  1.1603903162779212  1.0472322503904619   T   T   T
  1.6133906271428415  5.8019515813896074  7.8711625170865140   T   T   T
  3.6353353577984655  8.1227322139454454 16.7895572845634788   T   T   T
  8.8840613427397805  8.1227322139454454  9.9656270178674369   T   T   T
  6.8621166120841455  5.8019515813896074  1.0472322503904619   T   T   T
