Cs I  Pb
 1.0000000000000000
     9.1517347414305874    0.0000000000013367    0.0000000000715387
     0.0000000000026226   17.3470027787314365   -0.0000000001685164
     0.0000000001037864   -0.0000000001216117   12.6386496520417637
 Cs  I   Pb 
   8  24   8
Cartesian
  8.4509569444019892  8.9093942640232928  3.1596624099095338
  3.8750895726449790  4.1008578264470357  3.1596624092849894
  0.7007777978392080 -0.2358928753180031  9.4789872391849386
  5.2766451673931947  4.5726435588850647  9.4789872430760482
  8.4509569433836589 17.5828956383988917  3.1596624118797303
  3.8750895719775746 12.7743592176138918  3.1596624126817083
  0.7007777986822979  8.4376085308330548  9.4789872426851023
  5.2766451694971721 13.2461449537481304  9.4789872382844855
  4.6666565521376935  7.9398808895913122  3.1596624394429300
  0.0907891818248040  5.0703711875969955  3.1596624317135995
  4.4850781894111629  0.7336205015830217  9.4789872216014501
  9.0609455593097650  3.6031302026750547  9.4789872204124350
  7.3254356147785495  6.9876425362017196 12.1121937837850080
  2.7495682297125303  6.0226095328938234  6.8457806912753183
  1.8262991225801330  1.6858588614849543  5.7928689615194013
  6.4021665123914824  2.6508918584914012  0.5264558663820085
  1.8262991274202234  1.6858588558769194  0.5264558657948109
  6.4021665190832282  2.6508918661849608  5.7928689607598169
  7.3254356087221071  6.9876425389271670  6.8457806912281818
  2.7495682305279279  6.0226095315174586 12.1121937839285625
  4.6666565534853355 16.6133822865372771  3.1596624289033501
  0.0907891823526456 13.7438725833295283  3.1596624108004914
  4.4850781883101662  9.4071218794296634  9.4789872128681427
  9.0609455592984496 12.2766315829516568  9.4789872398717794
  7.3254356014961042 15.6611439413873601 12.1121937860715363
  2.7495682474123089 14.6961109434552792  6.8457806895530053
  1.8262991584489345 10.3593602090938290  5.7928689615217426
  6.4021665004532391 11.3243932303358772  0.5264558650320761
  1.8262991418904244 10.3593602260689153  0.5264558650379676
  6.4021664857525806 11.3243932157274578  5.7928689617964535
  7.3254355924572003 15.6611439472827243  6.8457806897258502
  2.7495682415763860 14.6961109359773801 12.1121937865092040
  4.5758673708749145 -0.0000000169206203  0.0000000020092923
  0.0000000019001121  4.3367506845804575  6.3193248206280908
  4.5758673748897163 -0.0000000396063114  6.3193248305369574
  0.0000000011504564  4.3367506883047628  0.0000000044986705
  4.5758673647653518  8.6735014149911898  0.0000000010134439
  0.0000000013017584 13.0102520986535684  6.3193248296810518
  4.5758673659626554  8.6735014239565267  6.3193248226674754
  0.0000000001702277 13.0102520805979331  0.0000000012680662
