Cs I  Pb
 1.0000000000000000
     9.2678886102898996   -0.0000002846937332   -0.0000000163714751
    -0.0000006040918196   16.6377936814408507   -0.0000088528496107
    -0.0000000233300478   -0.0000061453152804   12.5826472359669790
 Cs  I   Pb 
   8  24   8
Cartesian
  8.4228530959641628  8.7066653338129267  3.1427780288517440
  3.7889162620205470  3.7716720769500980  3.1485415330191451
  0.8450412820901194 -0.3877733128978568  9.4341118627706884
  5.4789820967286076  4.5472095391515612  9.4398609527978188
  8.4228498252926087 17.0255627549546311  3.1427769736059514
  3.7889021327931554 12.0905747140013364  3.1485345882043760
  0.8450333840220013  7.9311229017651401  9.4341070431115508
  5.4789762511076292 12.8661143817182975  9.4398563041674954
  4.7346438095802084  7.6144200704861804  3.1505490396224056
  0.1006972997563678  4.8639268184053508  3.1407948575165014
  4.5332447994413636  0.7044702129893351  9.4418735724258447
  9.1671887042362314  3.4549668938203797  9.4320800999077949
  7.5112604274653867  6.8441265713363908 12.1097668737280504
  2.8773347346232878  5.6342123533050419  6.7642010015282032
  1.7566368988572938  1.4747448590095469  5.8184464378159761
  6.3905777431250677  2.6846993221637918  0.4728782456474188
  1.7559787990152642  1.4817631899919823  0.4691328328299469
  6.3899160629889362  2.6776792687772901  5.8221864971235027
  7.5118995873655452  6.8371500085815109  6.7604548625838206
  2.8779646542368615  5.6412071833333961 12.1135113272767381
  4.7346448167431925 15.9333148197441634  3.1505347956644720
  0.1007004109786925 13.1828200630746419  3.1407562787467245
  4.5332435846074457  9.0233702064806334  9.4418565161533365
  9.1671879063344974 11.7738610628817071  9.4321107555677202
  7.5112601693682164 15.1630357817709438 12.1097607529761966
  2.8773171514550833 13.9531016341580507  6.7641945778227806
  1.7566254115572226  9.7936561761670760  5.8184413574045948
  6.3905561351805282 11.0035779250098074  0.4728732256559015
  1.7559898387988402  9.8006445142306511  0.4691278550604507
  6.3899255513107907 10.9965788108466409  5.8221869394288133
  7.5119029654375868 15.1560324569275480  6.7604487146349150
  2.8779603660226729 13.9600903082858192 12.1135038669559769
  4.6337858880263703  0.0052673361547046 -0.0054516290601668
 -0.0001677959731857  4.1541602726644884  6.2967750376664799
  4.6341011188365213 -0.0052644718452107  6.2858732495627372
  0.0001463803213490  4.1647208190782790  0.0054351619740528
  4.6337909072829015  8.3241618281601379 -0.0054554295647217
 -0.0001470905562865 12.4730660122659636  6.2967578157076751
  4.6340922699950466  8.3136307691205094  6.2858602371588264
  0.0001690526139285 12.4836224518310530  0.0054490096475812
