Cs I  Pb
 1.0000000000000000
     9.2305619229052631    0.0000174118101783    0.0000005477026043
     0.0000390458417228   17.1767846689006127   -0.0000003252089528
     0.0000006920851324   -0.0000001881362169   12.6624834215387523
 Cs  I   Pb 
   8  24   8
Cartesian
  8.4023773430639270  8.9099082884787357  3.1656166206346090
  3.7870497652778581  3.9727419367774899  3.1656149249318926
  0.8282693082599493 -0.3214467126405177  9.4968632301361406
  5.4434825306125187  4.6157182688100109  9.4968596418600022
  8.4024489516236205 17.4982426884340860  3.1656179542862724
  3.7871274477514500 12.5611569811290256  3.1656173098940537
  0.8282036801946023  8.2669337386025603  9.4968577903216627
  5.4434829381597458 13.2040777287521447  9.4968606377462326
  4.7088966241503991  7.8384913219140930  3.1656142384401740
  0.0935720336031077  5.0440809710991505  3.1656141657743997
  4.5216775981733504  0.7500779923862901  9.4968556505432549
  9.1369865944248048  3.5443526374357730  9.4968649288477067
  7.4319866827574250  6.9827408496916892 12.1471068055186873
  2.8166710375287298  5.8999169446546587  6.8466770379137598
  1.7986125799216774  1.6056558903008153  5.8158052719208406
  6.4138817305797593  2.6885151887847307  0.5155160279054432
  1.7986065633972856  1.6056629307920964  0.5154354845606411
  6.4138879201027388  2.6885186085337818  5.8157236999109134
  7.4319900129335164  6.9827395813285511  6.8466176186951326
  2.8166705808183616  5.8999193598624791 12.1470465279520958
  4.7089140195105736 16.4268511715520624  3.1656170578239964
  0.0935062706463872 13.6324332992269266  3.1656143141437476
  4.5217691005606007  9.3382683434047156  9.4968651172128720
  9.1369559145021615 12.1325639075474214  9.4968524917863579
  7.4320080133394031 15.5710940471557109 12.1469686727968309
  2.8167067154143823 14.4882533877750515  6.8466817996989437
  1.7986485045735623 10.1940742333690348  5.8157527530512443
  6.4139302153051423 11.2769011905409844  0.5154314487731315
  1.7986399171689773 10.1940773555474724  0.5154878925530818
  6.4139382588331300 11.2769110393223553  5.8158116556833122
  7.4320076805063264 15.5710973035335254  6.8467601407164542
  2.8167072637595729 14.4882511637900855 12.1470468017278783
  4.6152924917894786  0.0000324382416627  0.0000074916788326
  0.0000006151965099  4.2941873885420554  6.3312341804531229
  4.6152864507748061  0.0000377782873692  6.3312533343731801
  0.0000000949074781  4.2941848096673034  0.0000143841010476
  4.6153065312392849  8.5884100215022841  0.0000160308673714
  0.0000282905785944 12.8825837925825031  6.3312812787797617
  4.6153013639578688  8.5884112988993060  6.3312366237927202
  0.0000399444032342 12.8825894025899963 -0.0000132392932907
