Cs I  Pb
 1.0000000000000000
     8.8529055871418958    0.0000000494083503    0.0000000449025596
     0.0000000988159686   17.7057871984457904   -0.0000001565836280
     0.0000000648644678   -0.0000001152652695   12.9967964349895624
 Cs  I   Pb 
   8  24   8
Cartesian
  4.4264527528221151 -0.0000031404398111  3.2507058524779957
  0.0000024212183168  4.4264455005566257  3.2476925754278709
  4.4264522565603821 -0.0000038064291343  9.7491037543021921
  0.0000003773926901  4.4264475524716804  9.7460906003991514
  4.4264491175341760  8.8528932113931589  3.2507049220088882
  0.0000011086319343 13.2793400264560884  3.2476921928597924
  4.4264520287524176  8.8528953726010418  9.7491034814688380
  0.0000026957136535 13.2793406283129958  9.7460901797789923
 -0.0000002668754601  0.0000021965668949  3.2477156387852144
  4.4264528335125064  4.4264467380581625  3.2506806709098619
  7.2098952997959627  2.7834420054349982 -0.0010303180598660
  1.6430094352985700  6.0694578389749649 -0.0010298233651353
  6.0694564111321840  7.2098789313063687  0.0010319492452835
  2.7834461905781454  1.6430115511777910  0.0010323636229654
  0.0000001860725672  0.0000010385654247  9.7461240371125548
  4.4264534236037676  4.4264470075304283  9.7490724631785763
  7.2098928565718206  2.7834436105943801  6.4973664025340714
  1.6430119046190519  6.0694541532191950  6.4973664585158888
  6.0694508356084160  7.2098747714833795  6.4994283445926655
  2.7834481904275137  1.6430147848161778  6.4994287284974943
  0.0000001032595089  8.8528938991318018  3.2477154907212968
  4.4264526762637377 13.2793393154085901  3.2506804022634515
  7.2099077111207590 11.6363198630773308 -0.0010312681451179
  1.6430043150460607 14.9223548463022162 -0.0010301975127622
  6.0694700610245533 16.0627878338715782  0.0010317797052638
  2.7834371875993211 10.4958969875846595  0.0010312661752817
 -0.0000003714693172  8.8528925703495371  9.7461241190205516
  4.4264519067253030 13.2793405331188623  9.7490720273702074
  7.2099047580384514 11.6363246985411717  6.4973669828105409
  1.6430064666155240 14.9223534743750914  6.4973657226586745
  6.0694695205812055 16.0627858827966001  6.4994284357127539
  2.7834413443030677 10.4958999006710822  6.4994294369660190
 -0.0000046211246704 -0.0000140446723118  0.0021216952342401
  4.4264511649767266  4.4264519800693130 -0.0021297396598146
 -0.0000031161433473 -0.0000144641223634  6.5005245548056187
  4.4264517017226153  4.4264494940089385  6.4962804011855759
  0.0000044335312364  8.8529029126741552  0.0021227798705118
  4.4264507117327536 13.2793416177741719 -0.0021297371171171
  0.0000072825043746  8.8529025787142057  6.5005228777441593
  4.4264475214328520 13.2793414708744866  6.4962803347845970
