Cs I  Pb
 1.0000000000000000
    12.7704628902613546   -0.0000000000000000    0.0000000000000000
    -0.0000000000000001   12.7704628902613813    0.0000000000000869
     0.0000000000000001    0.0000000000001082   12.7704628902613493
 Cs  I   Pb 
   8  24   8
Cartesian
  3.1926157225653573  3.1926157225653893  3.1926157225653724
  3.1926157225653493  3.1926157225654386  9.5778471676960439
  3.1926157225653542  9.5778471676960812  3.1926157225654181
  3.1926157225653546  9.5778471676961363  9.5778471676960866
  9.5778471676960315  3.1926157225653875  3.1926157225653622
  9.5778471676960315  3.1926157225654399  9.5778471676960439
  9.5778471676960297  9.5778471676960777  3.1926157225654173
  9.5778471676960297  9.5778471676961363  9.5778471676960848
  0.0000000000000044  0.0000000000000302  3.1926157225653449
  0.0000000000000029  3.1926157225653524  0.0000000000000257
  3.1926157225653466  0.0000000000000021  0.0000000000000018
  0.0000000000000037  0.0000000000000866  9.5778471676960155
  0.0000000000000072  3.1926157225654053  6.3852314451307004
  3.1926157225653462  0.0000000000000546  6.3852314451306800
  0.0000000000000056  6.3852314451307235  3.1926157225653871
  0.0000000000000009  9.5778471676960439  0.0000000000000679
  3.1926157225653466  6.3852314451306968  0.0000000000000466
  0.0000000000000025  6.3852314451307768  9.5778471676960617
  0.0000000000000025  9.5778471676960972  6.3852314451307457
  3.1926157225653471  6.3852314451307519  6.3852314451307208
  6.3852314451306809  0.0000000000000299  3.1926157225653444
  6.3852314451306835  3.1926157225653542  0.0000000000000268
  9.5778471676960226  0.0000000000000065  0.0000000000000032
  6.3852314451306844  0.0000000000000834  9.5778471676960173
  6.3852314451306809  3.1926157225654053  6.3852314451307031
  9.5778471676960226  0.0000000000000593  6.3852314451306800
  6.3852314451306835  6.3852314451307235  3.1926157225653862
  6.3852314451306880  9.5778471676960422  0.0000000000000676
  9.5778471676960226  6.3852314451306924  0.0000000000000495
  6.3852314451306844  6.3852314451307777  9.5778471676960599
  6.3852314451306844  9.5778471676960955  6.3852314451307457
  9.5778471676960208  6.3852314451307510  6.3852314451307208
  0.0000000000000089  0.0000000000000062  0.0000000000000080
  0.0000000000000085  0.0000000000000616  6.3852314451306826
  0.0000000000000074  6.3852314451306986  0.0000000000000501
  0.0000000000000071  6.3852314451307519  6.3852314451307270
  6.3852314451306844  0.0000000000000073  0.0000000000000068
  6.3852314451306871  0.0000000000000623  6.3852314451306817
  6.3852314451306844  6.3852314451306995  0.0000000000000509
  6.3852314451306853  6.3852314451307528  6.3852314451307262
