Cs I  Pb
 1.0000000000000000
     8.7238930299256872   -0.0000000625087459   -0.0000000268252501
    -0.0000001250181896   17.4477865395433582    0.0000000245278740
    -0.0000000389820436    0.0000000166965894   13.0245180399375560
 Cs  I   Pb 
   8  24   8
Cartesian
  4.3619473582997808 -0.0000024272773692  3.2561189734069576
 -0.0000004378832330  4.3619421847194086  3.2561320206129776
  4.3619480337619150 -0.0000024210240266  9.7683850248774693
 -0.0000020714872406  4.3619434076771935  9.7684018072692016
  4.3619450517572727  8.7238930166045954  3.2561195774640832
  0.0000007822884495 13.0858418629300175  3.2561183526798767
  4.3619452473755960  8.7238971541859964  9.7683919729254960
  0.0000037296735016 13.0858428073879036  9.7683913512596252
  0.0000003528010049 -0.0000001013228239  3.2437375751097588
  4.3619459186977263  4.3619482086389070  3.2684890313131798
  7.1892089911253914  2.8272775790274132 -0.0000048682994800
  1.5346750425697773  5.8966285237876388 -0.0000024362362590
  5.8966159486359615  7.1892145803126004  0.0000053315661235
  2.8272782517695152  1.5346816466914976  0.0000020271554488
  0.0000004032085502 -0.0000006630597839  9.7560363538804111
  4.3619454238243982  4.3619481903882731  9.7807755615204428
  7.1892068226105890  2.8272762939546112  6.5122541128001004
  1.5346802448909806  5.8966228191897407  6.5122539740584626
  5.8966180536461037  7.1892162799040653  6.5122568210439464
  2.8272707588265136  1.5346825406106330  6.5122634804426625
  0.0000000580325922  8.7238937818455788  3.2437747641910977
  4.3619467050137315 13.0858386021492166  3.2684969291984345
  7.1892287552823975 11.5511614451707878  0.0000049626320652
  1.5346725463933983 14.6205061947209707  0.0000015045273563
  5.8966290846159595 15.9131178916401073  0.0000027705573470
  2.8272629377625966 10.2585590122510766  0.0000036209206967
 -0.0000002426317765  8.7238938189243367  9.7559928166125811
  4.3619450226289658 13.0858385095297436  9.7807597583796220
  7.1892251600477639 11.5511531942374255  6.5122619325089719
  1.5346691222978237 14.6205143711169772  6.5122624709452639
  5.8966357708230381 15.9131199232878000  6.5122650902942549
  2.8272599976439752 10.2585553931479456  6.5122622289950831
 -0.0000128068021435 -0.0000004078397524  0.0288230796369388
  4.3619526631056118  4.3619403154437073 -0.0288292757047918
 -0.0000126445909493  0.0000006603814622  6.5410708248512641
  4.3619538854056463  4.3619322291079889  6.4834524243366767
  0.0000116583214462  8.7238915878422105  0.0288387331646505
  4.3619401071787491 13.0858477781529725 -0.0288335421207985
  0.0000060081530838  8.7239075349241109  6.5410577946617936
  4.3619519233129456 13.0858472560620722  6.4834576041368308
