Cs I  Pb
 1.0000000000000000
    12.8180750492804059    0.0000000000000000   -0.0000000000000000
    -0.0000000000000001   12.8180750492774802   -0.0000000000017958
     0.0000000000000001   -0.0000000000012035   12.8180750492802282
 Cs  I   Pb 
   8  24   8
Cartesian
  3.2045187623201774  3.2045187623191445  3.2045187623196836
  3.2045187623201792  3.2045187623185374  9.6135562869600157
  3.2045187623201805  9.6135562869581115  3.2045187623187883
  3.2045187623201774  9.6135562869575093  9.6135562869591187
  9.6135562869606144  3.2045187623191427  3.2045187623196836
  9.6135562869606073  3.2045187623185392  9.6135562869600228
  9.6135562869606144  9.6135562869581044  3.2045187623187870
  9.6135562869606144  9.6135562869575022  9.6135562869591187
  0.0000000000000047 -0.0000000000002967  3.2045187623201588
  0.0000000000000045  3.2045187623194691 -0.0000000000004474
  3.2045187623202018  0.0000000000000027  0.0000000000000017
  0.0000000000000013 -0.0000000000009019  9.6135562869604332
  0.0000000000000013  3.2045187623188673  6.4090375246398166
  3.2045187623202041 -0.0000000000006003  6.4090375246402660
  0.0000000000000012  6.4090375246385944  3.2045187623192577
  0.0000000000000032  9.6135562869583566 -0.0000000000013442
  3.2045187623202018  6.4090375246388920 -0.0000000000008943
  0.0000000000000014  6.4090375246379860  9.6135562869595272
  0.0000000000000012  9.6135562869577598  6.4090375246389195
  3.2045187623202049  6.4090375246382933  6.4090375246393645
  6.4090375246403593 -0.0000000000002991  3.2045187623201583
  6.4090375246403628  3.2045187623194673 -0.0000000000004483
  9.6135562869605593  0.0000000000000034  0.0000000000000026
  6.4090375246403557 -0.0000000000009000  9.6135562869604261
  6.4090375246403593  3.2045187623188687  6.4090375246398210
  9.6135562869605593 -0.0000000000005999  6.4090375246402660
  6.4090375246403557  6.4090375246385873  3.2045187623192621
  6.4090375246403593  9.6135562869583620 -0.0000000000013469
  9.6135562869605593  6.4090375246388920 -0.0000000000008985
  6.4090375246403593  6.4090375246379896  9.6135562869595326
  6.4090375246403593  9.6135562869577598  6.4090375246389195
  9.6135562869605664  6.4090375246382898  6.4090375246393636
  0.0000000000000220  0.0000000000000248  0.0000000000000202
  0.0000000000000252 -0.0000000000005758  6.4090375246402633
  0.0000000000000231  6.4090375246388787 -0.0000000000008716
  0.0000000000000252  6.4090375246382765  6.4090375246393547
  6.4090375246403450  0.0000000000000218  0.0000000000000265
  6.4090375246403459 -0.0000000000005769  6.4090375246402571
  6.4090375246403442  6.4090375246388742 -0.0000000000008734
  6.4090375246403486  6.4090375246382765  6.4090375246393583
