Cs I  Pb
 1.0000000000000000
     8.6990663943826601   -0.0000028985569747    0.0000002821882830
    -8.6990714148485271   15.0672215734097090   -0.0000003517572230
     0.0000005297637552   -0.0000000722925574   15.6776151605601655
 Cs  I   Pb 
   8  24   8
Cartesian
 -0.0001157436998198  5.0224723673289855  1.4433908992782309
  4.3496447535275937  2.5111376644948393  5.3627939176189052
 -0.0001146123973689  5.0224738872764396  9.2821990306681101
  4.3496444949870137  2.5111379314325881 13.2016028529571852
 -4.3496551971002395 12.5560827991503778  1.4433880230187539
  0.0001132083454283 10.0447416736737782  5.3627885310579098
 -4.3496550546466972 12.5560817560637474  9.2821968279734168
  0.0001124051757494 10.0447425806946917 13.2015989066205641
  6.4569656148332140  1.2944741444476864  1.9229881827092035
  4.3496684402834918  4.9446240039738329  1.9230098382515666
  2.2422013703625083  1.2943752779795366  1.9230118395494391
 -2.1074352710968425  6.2391332955187577  5.8423938271487295
 -0.0001375622784727  2.5889872825144038  5.8424120771549646
  2.1073332382750962  6.2392319553182727  5.8424133986046556
  6.4569624766521949  1.2944773016483191  9.7617947912555216
  4.3496684570750457  4.9446174157970582  9.7618142552144143
  2.2421981405991489  1.2943738292768334  9.7618167405049210
 -2.1074377151509660  6.2391348405365994 13.6811989536189085
 -0.0001361583848443  2.5889808826921636 13.6812206232029769
  2.1073336804288507  6.2392320434080473 13.6812189338015511
  2.1074346892379912  8.8280812745812920  1.9229873698187858
  0.0001313605178478 12.4782266756195721  1.9230088903902138
 -2.1073399421481369  8.8279847425337419  1.9230084436021597
 -6.4569748436761909 13.7727486672827730  5.8423902209524545
 -4.3496721948272237 10.1225990332470008  5.8424104214946739
 -2.2422032181977896 13.7728446198233065  5.8424088003234953
  2.1074320108767082  8.8280824352339078  9.7617946013783410
  0.0001323968106457 12.4782346138978824  9.7618135014373202
 -2.1073407815269420  8.8279830043257412  9.7618134539738257
 -6.4569757843796820 13.7727493063376336 13.6811993495082085
 -4.3496717900806336 10.1225961739943990 13.6812193179378934
 -2.2421978503026048 13.7728471614088299 13.6812189947448299
  0.0000410760599094 -0.0000196075216012 -0.0482842223800394
 -0.0000351314418509  0.0000242672550497  3.8711336946114203
  0.0000496521835635 -0.0000257761917226  7.7905352261189558
 -0.0000359511803085  0.0000233013516080 11.7099499803340343
 -4.3494981474349688  7.5335910345561707 -0.0482711100730022
 -4.3495775212766841  7.5336338516050843  3.8711207918238846
 -4.3494949148519915  7.5335866597241941  7.7905473249007535
 -4.3495750339657135  7.5336362812988122 11.7099392972296528
