Cs I  Pb
 1.0000000000000000
     8.2036078543439022   -0.0026759352621035    0.0220475762889064
    -8.2082038680938236   14.2148603918559484   -0.0281338415458328
     0.0379493542576730   -0.0066667997530272   16.1983826693774802
 Cs  I   Pb 
   8  24   8
Cartesian
 -0.0085107272441695  4.7216630802224424  1.1398580665307261
  4.0995289688570473  2.3756339136387692  5.2091717221543004
  0.0104659210091772  4.7183203065346655  9.2390411333194056
  4.1185042554116853  2.3723062219080222 13.3083549329749662
 -4.1125754701832689 11.8290330267577328  1.1257449898784533
 -0.0045647683650464  9.4831752638759461  5.1950851960050883
 -4.0935982864289651 11.8257035322932555  9.2249358236183081
  0.0144109605728424  9.4798481929263279 13.2942806800485727
  5.9828037416573530  1.0482104645422121  2.1471073133057237
  4.3000706537072269  4.6411805440230296  2.0334670136998096
  2.0440883806079135  1.4016520453215779  2.0798527258592934
 -2.0512452392784679  5.7107403984084906  6.1508419325749184
  0.2033624106075490  2.4595786942154976  6.0798396658644061
  1.8909472029141763  6.0483448027740554  6.1378360789690181
  6.0017630205073855  1.0448891380224972 10.2463061114342668
  4.3190483721523840  4.6378346693868524 10.1326708701920616
  2.0630706905304890  1.3983238474719470 10.1790452671546898
 -2.0322823786940982  5.7074094136470315 14.2500343428318725
  0.2223388185528628  2.4562362428761437 14.1790336707791642
  1.9099198914539512  6.0450097617897205 14.2370192553479189
  1.8788292964668352  8.1555063651529878  2.1330495366263689
  0.1959637850954263 11.7486171504175143  2.0194106666777314
 -2.0601756451206126  8.5088847316227376  2.0657768184745060
 -6.1555038747657038 12.8183534366796383  6.1367339646139927
 -3.9007457884549939  9.5669639831424700  6.0657595363528705
 -2.2129799590966859 13.1558738688443881  6.1237712402963647
  1.8977790976932791  8.1521845666690300 10.2322493487139319
  0.2149371247351057 11.7452599155589468 10.1186170985462560
 -2.0411877220562125  8.5055693542131934 10.1649800204096881
 -6.1365295244425928 12.8150160829926545 14.2359263983810180
 -3.8817692665751502  9.5636268776677795 14.1649403934326994
 -2.1939975021178371 13.1525395388397914 14.2229562550114288
 -0.0155925708396794  0.0314352660069721  0.0289071868437194
  0.0346716338499770 -0.0340467628597382  4.0772650349339736
  0.0033773734106924  0.0281135317738543  8.1280779650007826
  0.0536489605834933 -0.0373799011648043 12.1764684964654109
 -4.1196688830651560  7.1390743903511593  0.0152424872031783
 -4.0694227993651024  7.0735994725179081  4.0627978019843853
 -4.1007027796029991  7.1357519427336875  8.1143794169968366
 -4.0504480866872763  7.0702608414441883 12.1620071811498569
