Cs I  Pb
 1.0000000000000000
    10.9538370044723887   -0.0003774002264069   -0.0000905071966653
    -0.0003551892669182    9.7401080617195070    0.0006671390513424
    -0.0001572631024166    0.0012182117571914   18.2038626901432181
 Cs  I   Pb 
   8  24   8
Cartesian
  4.6879761847262191  1.2197412541239878 12.2729244748768895
  0.7912139726715487  3.6501751262120492  3.1712040388675260
  6.2679708345478158  3.6550123078484784  5.9309387911909113
 10.1640446198891663  1.2151831079146957 15.0334361135678218
  4.6876132266673975  6.0903141384713297 12.2736714220925229
  0.7909499083578510  8.5201693184110567  3.1714599599054281
  6.2680598731129713  8.5249347911308089  5.9315998138360824
 10.1639484502726276  6.0855805269714347 15.0340972992178497
  1.7953798083821579  1.2103139965561800  0.0589840324558489
  3.6834076632991510  3.6583913127454211  9.1610195822508782
  9.1599947340060250  3.6468427120561970 18.1456729542218760
  7.2726938253184468  1.2232096934442427  9.0429317039485628
  3.1865027567240625  1.2192581869063850  5.2257344240677899
  2.2920879585786973  3.6511929270869929 14.3278304859776373
  7.7691792301480129  3.6542967676971632 12.9787557531089170
  8.6635796785913985  1.2154333223937879  3.8769828981463510
  0.2607563188432354  1.2243632392880177 11.0768385993974654
  5.2178411483100593  3.6452657447825629  1.9751164123323268
 10.6948086413101020  3.6597825347699162  7.1275919748059451
  5.7379790939932516  1.2104492839076899 16.2298319289458810
  1.7950550335190507  6.0802684681342587  0.0590766384764516
  3.6830953670093320  8.5292671156740774  9.1613543203424506
  9.1600093220845000  8.5174483080536127 18.1462527000296561
  7.2719014980827010  6.0930637643288987  9.0438423584290266
  3.1859018088251543  6.0892870563888346  5.2263939304555826
  2.2921734380794057  8.5212925256280272 14.3285411526756743
  7.7690906578791514  8.5243880929614004 12.9791381081815160
  8.6632972928245291  6.0853023368421137  3.8769766863216644
  0.2607340460739803  6.0945853074059810 11.0774096876050265
  5.2179694698926795  8.5145428703834583  1.9759799851313080
 10.6947039066643406  8.5292631502496601  7.1280160123694039
  5.7376696707743715  6.0804770623780167 16.2300620580032628
  1.7949799913596929  1.2257808442951934  8.0299344281954692
  3.6838964355557917  3.6444593975910862 17.1319284387623938
  9.1612408644580121  3.6604547210917318 10.1745798840663060
  7.2714565544117606  1.2085412509945495  1.0728564113740895
  1.7937045879515323  6.0955407662920145  8.0304025500961647
  3.6844955975955029  8.5147519441098840 17.1325466095839190
  9.1612443763006848  8.5305151925028788 10.1746540811810053
  7.2714029993482754  6.0788242308131384  1.0727577752035813
